
     Program PWSCF v.7.5 starts on  6Aug2026 at 14:50:53 

     This program is part of the open-source Quantum ESPRESSO suite
     for quantum simulation of materials; please cite
         "P. Giannozzi et al., J. Phys.:Condens. Matter 21 395502 (2009);
         "P. Giannozzi et al., J. Phys.:Condens. Matter 29 465901 (2017);
         "P. Giannozzi et al., J. Chem. Phys. 152 154105 (2020);
          URL http://www.quantum-espresso.org", 
     in publications or presentations arising from this work. More details at
     http://www.quantum-espresso.org/quote

     Parallel version (MPI), running on     1 processors

     MPI processes distributed on     1 nodes
     11166 MiB available memory on the printing compute node when the environment starts

     Reading input from espresso.pwi
Warning: card &CELL ignored
Warning: card &FCP ignored
Warning: card &RISM ignored

     Current dimensions of program PWSCF are:
     Max number of different atomic species (ntypx) = 10
     Max number of k-points (npk) =  40000
     Max angular momentum in pseudopotentials (lmaxx) =  4
     file Si.pbe-n-kjpaw_psl.1.0.0.UPF: wavefunction(s)  3S 3P renormalized
     Found identity + (  0.0000 -0.5000 -0.5000) symmetry
     This is a supercell, fractional translations are disabled
     Message from routine setup:
     using ibrav=0 with symmetry is DISCOURAGED, use correct ibrav instead

     Subspace diagonalization in iterative solution of the eigenvalue problem:
     a serial algorithm will be used


     G-vector sticks info
     --------------------
     sticks:   dense  smooth     PW     G-vecs:    dense   smooth      PW
     Sum        2997    2017    561               124289    67715   10059

     Using Slab Decomposition



     bravais-lattice index     =            0
     lattice parameter (alat)  =      10.2625  a.u.
     unit-cell volume          =    1080.8465 (a.u.)^3
     number of atoms/cell      =            8
     number of atomic types    =            1
     number of electrons       =        32.00
     number of Kohn-Sham states=           20
     kinetic-energy cutoff     =      60.0000  Ry
     charge density cutoff     =     360.0000  Ry
     scf convergence threshold =      1.0E-08
     mixing beta               =       0.7000
     number of iterations used =            8  plain     mixing
     Exchange-correlation= SLA  PW   PBX  PBC
                           (   1   4   3   4   0   0   0)

     celldm(1)=  10.262536  celldm(2)=   0.000000  celldm(3)=   0.000000
     celldm(4)=   0.000000  celldm(5)=   0.000000  celldm(6)=   0.000000

     crystal axes: (cart. coord. in units of alat)
               a(1) = (   1.000000   0.000000   0.000000 )  
               a(2) = (   0.000000   1.000000   0.000000 )  
               a(3) = (   0.000000   0.000000   1.000000 )  

     reciprocal axes: (cart. coord. in units 2 pi/alat)
               b(1) = (  1.000000  0.000000  0.000000 )  
               b(2) = (  0.000000  1.000000  0.000000 )  
               b(3) = (  0.000000  0.000000  1.000000 )  


     PseudoPot. # 1 for Si read from file:
     /home/yluo/CompMatPhys/10_bonding/Si.pbe-n-kjpaw_psl.1.0.0.UPF
     MD5 check sum: c39c59da582df4a0d9f10159256ea34e
     Pseudo is Projector augmented-wave + core cor, Zval =  4.0
     Generated using &quot;atomic&quot; code by A. Dal Corso  v.6.3
     Shape of augmentation charge: PSQ
     Using radial grid of 1141 points,  6 beta functions with: 
                l(1) =   0
                l(2) =   0
                l(3) =   1
                l(4) =   1
                l(5) =   2
                l(6) =   2
     Q(r) pseudized with 0 coefficients 


     atomic species   valence    mass     pseudopotential
     Si                4.00    28.08500     Si( 1.00)

     24 Sym. Ops. (no inversion) found



   Cartesian axes

     site n.     atom                  positions (alat units)
         1        Si     tau(   1) = (   0.0000000   0.0000000   0.0000000  )
         2        Si     tau(   2) = (   0.0000000   0.5000000   0.5000000  )
         3        Si     tau(   3) = (   0.5000000   0.0000000   0.5000000  )
         4        Si     tau(   4) = (   0.5000000   0.5000000   0.0000000  )
         5        Si     tau(   5) = (   0.7500000   0.7500000   0.2500000  )
         6        Si     tau(   6) = (   0.7500000   0.2500000   0.7500000  )
         7        Si     tau(   7) = (   0.2500000   0.7500000   0.7500000  )
         8        Si     tau(   8) = (   0.2500000   0.2500000   0.2500000  )

     number of k points=    20  Marzari-Vanderbilt smearing, width (Ry)=  0.0050
                       cart. coord. in units 2pi/alat
        k(    1) = (   0.0000000   0.0000000   0.0000000), wk =   0.0058309
        k(    2) = (   0.0000000   0.0000000   0.1428571), wk =   0.0349854
        k(    3) = (   0.0000000   0.0000000   0.2857143), wk =   0.0349854
        k(    4) = (   0.0000000   0.0000000   0.4285714), wk =   0.0349854
        k(    5) = (   0.0000000   0.1428571   0.1428571), wk =   0.0699708
        k(    6) = (   0.0000000   0.1428571   0.2857143), wk =   0.1399417
        k(    7) = (   0.0000000   0.1428571   0.4285714), wk =   0.1399417
        k(    8) = (   0.0000000   0.2857143   0.2857143), wk =   0.0699708
        k(    9) = (   0.0000000   0.2857143   0.4285714), wk =   0.1399417
        k(   10) = (   0.0000000   0.4285714   0.4285714), wk =   0.0699708
        k(   11) = (   0.1428571   0.1428571   0.1428571), wk =   0.0466472
        k(   12) = (   0.1428571   0.1428571   0.2857143), wk =   0.1399417
        k(   13) = (   0.1428571   0.1428571   0.4285714), wk =   0.1399417
        k(   14) = (   0.1428571   0.2857143   0.2857143), wk =   0.1399417
        k(   15) = (   0.1428571   0.2857143   0.4285714), wk =   0.2798834
        k(   16) = (   0.1428571   0.4285714   0.4285714), wk =   0.1399417
        k(   17) = (   0.2857143   0.2857143   0.2857143), wk =   0.0466472
        k(   18) = (   0.2857143   0.2857143   0.4285714), wk =   0.1399417
        k(   19) = (   0.2857143   0.4285714   0.4285714), wk =   0.1399417
        k(   20) = (   0.4285714   0.4285714   0.4285714), wk =   0.0466472

     Dense  grid:   124289 G-vectors     FFT dimensions: (  64,  64,  64)

     Smooth grid:    67715 G-vectors     FFT dimensions: (  54,  54,  54)

     Estimated max dynamical RAM per process >     539.23 MB

     Initial potential from superposition of free atoms

     starting charge      31.9955, renormalised to      32.0000
     Starting wfcs are   32 randomized atomic wfcs
     Checking if some PAW data can be deallocated... 

     total cpu time spent up to now is       13.0 secs

     Self-consistent Calculation

     iteration #  1     ecut=    60.00 Ry     beta= 0.70
     Davidson diagonalization with overlap
     ethr =  1.00E-02,  avg # of iterations =  3.1

     Threshold (ethr) on eigenvalues was too large:
     Diagonalizing with lowered threshold

     Davidson diagonalization with overlap
     ethr =  6.20E-04,  avg # of iterations =  2.4

     total cpu time spent up to now is       53.8 secs

     total energy              =    -373.80289045 Ry
     estimated scf accuracy    <       0.21649088 Ry

     iteration #  2     ecut=    60.00 Ry     beta= 0.70
     Davidson diagonalization with overlap
     ethr =  6.77E-04,  avg # of iterations =  1.0

     total cpu time spent up to now is       70.8 secs

     total energy              =    -373.81099505 Ry
     estimated scf accuracy    <       0.01049403 Ry

     iteration #  3     ecut=    60.00 Ry     beta= 0.70
     Davidson diagonalization with overlap
     c_bands:  1 eigenvalues not converged
     ethr =  3.28E-05,  avg # of iterations =  9.1

     total cpu time spent up to now is       97.4 secs

     total energy              =    -373.81299847 Ry
     estimated scf accuracy    <       0.00027346 Ry

     iteration #  4     ecut=    60.00 Ry     beta= 0.70
     Davidson diagonalization with overlap
     ethr =  8.55E-07,  avg # of iterations =  7.6

     total cpu time spent up to now is      126.4 secs

     total energy              =    -373.81313871 Ry
     estimated scf accuracy    <       0.00000936 Ry

     iteration #  5     ecut=    60.00 Ry     beta= 0.70
     Davidson diagonalization with overlap
     ethr =  2.92E-08,  avg # of iterations =  4.7

     total cpu time spent up to now is      151.6 secs

     total energy              =    -373.81314507 Ry
     estimated scf accuracy    <       0.00000052 Ry

     iteration #  6     ecut=    60.00 Ry     beta= 0.70
     Davidson diagonalization with overlap
     ethr =  1.61E-09,  avg # of iterations =  4.0

     total cpu time spent up to now is      176.1 secs

     total energy              =    -373.81314526 Ry
     estimated scf accuracy    <       0.00000023 Ry

     iteration #  7     ecut=    60.00 Ry     beta= 0.70
     Davidson diagonalization with overlap
     ethr =  7.19E-10,  avg # of iterations =  2.0

     total cpu time spent up to now is      196.3 secs

     End of self-consistent calculation

          k = 0.0000 0.0000 0.0000 (  8409 PWs)   bands (ev):

    -5.7613  -1.6177  -1.6177  -1.6177  -1.6177  -1.6177  -1.6176   3.3490
     3.3490   3.3490   3.3490   3.3490   3.3490   6.2018   6.2018   6.2018
     6.9137   6.9137   6.9137   6.9137

          k = 0.0000 0.0000 0.1429 (  8481 PWs)   bands (ev):

    -5.6720  -2.6656  -1.5892  -1.5892  -1.5892  -1.5892  -0.4636   3.1129
     3.1129   3.1129   3.1129   3.4295   3.4295   5.6689   5.8700   5.8700
     6.7762   7.2926   7.3755   7.3755

          k = 0.0000 0.0000 0.2857 (  8509 PWs)   bands (ev):

    -5.4052  -3.5836  -1.5215  -1.5214  -1.5214  -1.5214   0.7669   2.6805
     2.6805   2.6805   2.6805   3.6693   3.6693   4.5698   5.2281   5.2281
     6.8584   7.9274   8.0838   8.4950

          k = 0.0000 0.0000 0.4286 (  8526 PWs)   bands (ev):

    -4.9640  -4.3539  -1.4629  -1.4629  -1.4629  -1.4628   2.0403   2.3890
     2.3890   2.3890   2.3890   3.3223   4.0618   4.0618   4.5927   4.5927
     7.1339   7.5647   8.8153   9.8820

          k = 0.0000 0.1429 0.1429 (  8500 PWs)   bands (ev):

    -5.5833  -2.6116  -2.6115  -1.7136  -1.4246  -0.4796  -0.4795   2.5332
     3.1429   3.1429   3.2703   3.2704   3.4912   4.9240   5.5365   6.1173
     7.0779   7.2641   7.2641   7.7171

          k = 0.0000 0.1429 0.2857 (  8485 PWs)   bands (ev):

    -5.3182  -3.5145  -2.4600  -1.8431  -1.2040  -0.5494   0.6734   2.0950
     2.6004   3.0117   3.3513   3.3975   3.6234   3.9485   4.8896   5.6638
     7.3605   7.6940   8.3062   8.4150

          k = 0.0000 0.1429 0.4286 (  8497 PWs)   bands (ev):

    -4.8803  -4.2758  -2.2449  -2.0218  -0.9474  -0.7092   1.8181   1.9591
     2.1519   2.9130   2.9333   3.1040   3.7270   4.1741   4.2521   4.8946
     7.6384   8.0595   8.9419   9.1420

          k = 0.0000 0.2857 0.2857 (  8488 PWs)   bands (ev):

    -5.0588  -3.3133  -3.3133  -2.2096  -0.8478   0.4001   0.4001   1.8085
     2.7438   2.7438   3.0630   3.6061   3.6061   3.9016   4.2340   5.8040
     7.5531   8.5213   8.5213   9.2621

          k = 0.0000 0.2857 0.4286 (  8470 PWs)   bands (ev):

    -4.6315  -4.0449  -3.0000  -2.6131  -0.4384  -0.0002   1.3019   1.8581
     2.1784   2.1978   3.0846   3.5958   3.7348   3.9297   4.4127   5.2620
     8.2927   8.7872   9.1712   9.5950

          k = 0.0000 0.4286 0.4286 (  8472 PWs)   bands (ev):

    -4.2244  -3.6728  -3.6727  -3.1824   0.1056   0.6966   0.6966   1.4202
     2.0521   2.4837   2.4837   2.9673   4.5214   4.6137   4.6138   5.2231
     8.2662   8.9904   9.0495   9.0496

          k = 0.1429 0.1429 0.1429 (  8499 PWs)   bands (ev):

    -5.4952  -2.5701  -2.5701  -2.5700  -0.5081  -0.5081  -0.5080   2.6686
     2.6686   2.6686   3.5695   3.5695   3.5695   4.2688   5.8443   5.8443
     7.1650   7.1651   7.1651   8.4804

          k = 0.1429 0.1429 0.2857 (  8475 PWs)   bands (ev):

    -5.2321  -3.4505  -2.4667  -2.4667  -0.5939  -0.5939   0.5348   2.2824
     2.2825   3.0817   3.3529   3.5019   3.5019   3.8018   5.2758   5.5014
     7.4168   7.7892   7.7892   8.6740

          k = 0.1429 0.1429 0.4286 (  8484 PWs)   bands (ev):

    -4.7981  -4.2002  -2.3704  -2.3704  -0.6890  -0.6890   1.5194   2.1269
     2.1269   2.4422   3.2997   3.2997   3.7682   4.1799   4.6463   4.6851
     7.8054   8.2792   9.0267   9.0268

          k = 0.1429 0.2857 0.2857 (  8494 PWs)   bands (ev):

    -4.9756  -3.2682  -3.2682  -2.5308  -0.6471   0.1797   0.1797   2.1269
     2.4878   2.7963   2.7963   3.8315   3.8315   3.9710   4.7946   5.6700
     7.6569   8.0637   8.0637   8.6616

          k = 0.1429 0.2857 0.4286 (  8484 PWs)   bands (ev):

    -4.5540  -3.9782  -3.0012  -2.7212  -0.5425  -0.2336   0.9146   1.6693
     2.2434   2.5126   3.4677   3.8742   4.0143   4.1407   4.4218   5.1757
     8.3804   8.4716   8.8296   9.5807

          k = 0.1429 0.4286 0.4286 (  8472 PWs)   bands (ev):

    -4.1571  -3.6266  -3.6266  -3.1825  -0.2043   0.3007   0.3007   0.9353
     2.5511   2.9916   2.9916   3.5452   4.5675   4.6478   4.6478   5.2098
     8.3329   8.8533   9.0460   9.0462

          k = 0.2857 0.2857 0.2857 (  8472 PWs)   bands (ev):

    -4.7284  -3.1556  -3.1556  -3.1555  -0.2516  -0.2516  -0.2516   1.6465
     2.9329   2.9329   2.9329   4.1746   4.1747   4.1747   5.3281   5.3281
     7.9516   7.9516   7.9516   8.1050

          k = 0.2857 0.2857 0.4286 (  8480 PWs)   bands (ev):

    -4.3263  -3.7882  -3.0500  -3.0499  -0.5658  -0.5658   0.2540   0.8868
     3.0697   3.0698   3.9572   4.2771   4.2771   4.4963   4.9020   4.9264
     8.3453   8.3592   8.6109   8.6109

          k = 0.2857 0.4286 0.4286 (  8476 PWs)   bands (ev):

    -3.9654  -3.5114  -3.5113  -3.2281  -0.6125  -0.3053  -0.3053   0.2004
     3.5420   3.8935   3.8935   4.4908   4.6948   4.7358   4.7358   5.1559
     8.2637   8.4467   8.6563   8.6565

          k = 0.4286 0.4286 0.4286 (  8438 PWs)   bands (ev):

    -3.6866  -3.4033  -3.4033  -3.4033  -0.6930  -0.6929  -0.6929  -0.3874
     4.5515   4.5515   4.5515   4.8695   4.8695   4.8695   5.0392   5.0392
     7.7798   8.1543   8.1543   8.1543

     the Fermi energy is     6.5118 ev

!    total energy              =    -373.81314529 Ry
     total all-electron energy =     -4640.580065 Ry
     estimated scf accuracy    <          1.2E-09 Ry
     smearing contrib. (-TS)   =       0.00000000 Ry
     internal energy E=F+TS    =    -373.81314529 Ry

     The total energy is F=E-TS. E is the sum of the following terms:
     one-electron contribution =      22.95401679 Ry
     hartree contribution      =       4.40107711 Ry
     xc contribution           =     -49.23424290 Ry
     ewald contribution        =     -67.18711361 Ry
     one-center paw contrib.   =    -284.74688268 Ry

     convergence has been achieved in   7 iterations

     Forces acting on atoms (cartesian axes, Ry/au):

     atom    1 type  1   force =     0.00000000    0.00000000    0.00000000
     atom    2 type  1   force =     0.00000000    0.00000000    0.00000000
     atom    3 type  1   force =     0.00000000    0.00000000    0.00000000
     atom    4 type  1   force =     0.00000000    0.00000000    0.00000000
     atom    5 type  1   force =     0.00000286    0.00000286   -0.00000286
     atom    6 type  1   force =     0.00000286   -0.00000286    0.00000286
     atom    7 type  1   force =    -0.00000286    0.00000286    0.00000286
     atom    8 type  1   force =    -0.00000286   -0.00000286   -0.00000286

     Total force =     0.000010     Total SCF correction =     0.000032
     SCF correction compared to forces is large: reduce conv_thr to get better values


     Computing stress (Cartesian axis) and pressure

          total   stress  (Ry/bohr**3)                   (kbar)     P=       19.70
   0.00013391   0.00000000   0.00000000           19.70        0.00        0.00
   0.00000000   0.00013391   0.00000000            0.00       19.70        0.00
   0.00000000   0.00000000   0.00013391            0.00        0.00       19.70


     Writing all to output data dir ./Si_Full.save/ :
     XML data file, charge density, pseudopotentials, collected wavefunctions

     init_run     :     12.05s CPU     12.85s WALL (       1 calls)
     electrons    :    178.85s CPU    183.40s WALL (       1 calls)
     forces       :      6.67s CPU      7.11s WALL (       1 calls)
     stress       :     22.42s CPU     23.22s WALL (       1 calls)

     Called by init_run:
     wfcinit      :      8.89s CPU      8.97s WALL (       1 calls)
     potinit      :      1.73s CPU      1.97s WALL (       1 calls)
     hinit0       :      0.65s CPU      0.67s WALL (       1 calls)

     Called by electrons:
     c_bands      :    142.47s CPU    142.66s WALL (       8 calls)
     sum_band     :     21.10s CPU     23.98s WALL (       8 calls)
     v_of_rho     :      0.76s CPU      0.80s WALL (       8 calls)
     newd         :      5.48s CPU      7.33s WALL (       8 calls)
     PAW_pot      :     11.08s CPU     11.27s WALL (       8 calls)
     mix_rho      :      0.09s CPU      0.09s WALL (       8 calls)

     Called by c_bands:
     init_us_2    :      2.52s CPU      2.55s WALL (     380 calls)
     cegterg      :    135.67s CPU    135.87s WALL (     160 calls)

     Called by *egterg:
     cdiaghg      :      0.50s CPU      0.50s WALL (     820 calls)
     h_psi        :     85.08s CPU     85.30s WALL (     860 calls)
     s_psi        :     31.07s CPU     31.08s WALL (     860 calls)
     g_psi        :      0.22s CPU      0.22s WALL (     680 calls)

     Called by h_psi:
     h_psi:calbec :     30.32s CPU     30.34s WALL (     860 calls)
     vloc_psi     :     23.37s CPU     23.52s WALL (     860 calls)
                                        0.00s GPU  (     860 calls)
     add_vuspsi   :     31.16s CPU     31.20s WALL (     860 calls)

     General routines
     calbec       :     60.69s CPU     60.73s WALL (    1360 calls)
     fft          :      0.64s CPU      0.65s WALL (     128 calls)
     ffts         :      0.17s CPU      0.17s WALL (      16 calls)
     fftw         :     22.15s CPU     22.26s WALL (   23070 calls)
     interpolate  :      0.18s CPU      0.18s WALL (       8 calls)

     Parallel routines

     PWSCF        :   3m40.13s CPU   3m46.88s WALL


   This run was terminated on:  14:54:40   6Aug2026            

=------------------------------------------------------------------------------=
   JOB DONE.
=------------------------------------------------------------------------------=
