
     Program PWSCF v.7.5 starts on 10Jul2026 at  5:15:56 

     This program is part of the open-source Quantum ESPRESSO suite
     for quantum simulation of materials; please cite
         "P. Giannozzi et al., J. Phys.:Condens. Matter 21 395502 (2009);
         "P. Giannozzi et al., J. Phys.:Condens. Matter 29 465901 (2017);
         "P. Giannozzi et al., J. Chem. Phys. 152 154105 (2020);
          URL http://www.quantum-espresso.org", 
     in publications or presentations arising from this work. More details at
     http://www.quantum-espresso.org/quote

     Parallel version (MPI), running on     1 processors

     MPI processes distributed on     1 nodes
     9384 MiB available memory on the printing compute node when the environment starts

     Reading input from espresso.pwi
Warning: card &CELL ignored
Warning: card &FCP ignored
Warning: card &RISM ignored

     Current dimensions of program PWSCF are:
     Max number of different atomic species (ntypx) = 10
     Max number of k-points (npk) =  40000
     Max angular momentum in pseudopotentials (lmaxx) =  4
     file Fe.pbe-spn-kjpaw_psl.0.2.1.UPF: wavefunction(s)  3D renormalized
     file Al.pbe-n-kjpaw_psl.0.1.UPF: wavefunction(s)  3S renormalized
     Message from routine setup:
     using ibrav=0 with symmetry is DISCOURAGED, use correct ibrav instead

     Subspace diagonalization in iterative solution of the eigenvalue problem:
     a serial algorithm will be used


     G-vector sticks info
     --------------------
     sticks:   dense  smooth     PW     G-vecs:    dense   smooth      PW
     Sum        2193     871    265               103323    26119    4373

     Using Slab Decomposition



     bravais-lattice index     =            0
     lattice parameter (alat)  =       4.8556  a.u.
     unit-cell volume          =     330.2631 (a.u.)^3
     number of atoms/cell      =            4
     number of atomic types    =            2
     number of electrons       =        38.00
     number of Kohn-Sham states=           23
     kinetic-energy cutoff     =      70.0000  Ry
     charge density cutoff     =     700.0000  Ry
     scf convergence threshold =      1.0E-08
     mixing beta               =       0.7000
     number of iterations used =            8  plain     mixing
     Exchange-correlation= SLA  PW   PBX  PBC
                           (   1   4   3   4   0   0   0)

     celldm(1)=   4.855561  celldm(2)=   0.000000  celldm(3)=   0.000000
     celldm(4)=   0.000000  celldm(5)=   0.000000  celldm(6)=   0.000000

     crystal axes: (cart. coord. in units of alat)
               a(1) = (   1.000000   0.000000   0.000000 )  
               a(2) = (   0.000000   1.665641   0.000000 )  
               a(3) = (   0.000000   0.000000   1.732050 )  

     reciprocal axes: (cart. coord. in units 2 pi/alat)
               b(1) = (  1.000000  0.000000  0.000000 )  
               b(2) = (  0.000000  0.600370  0.000000 )  
               b(3) = (  0.000000  0.000000  0.577351 )  


     PseudoPot. # 1 for Fe read from file:
     /home/yluo/ASE/volume_optimization/CMP_pseudos/Fe.pbe-spn-kjpaw_psl.0.2.1.UPF
     MD5 check sum: 4338034a7fd945be4bb7db5fd3b2d142
     Pseudo is Projector augmented-wave + core cor, Zval = 16.0
     Generated using "atomic" code by A. Dal Corso  v.5.0.2 svn rev. 9415
     Shape of augmentation charge: PSQ
     Using radial grid of 1191 points,  6 beta functions with: 
                l(1) =   0
                l(2) =   0
                l(3) =   1
                l(4) =   1
                l(5) =   2
                l(6) =   2
     Q(r) pseudized with 0 coefficients 


     PseudoPot. # 2 for Al read from file:
     /home/yluo/ASE/volume_optimization/CMP_pseudos/Al.pbe-n-kjpaw_psl.0.1.UPF
     MD5 check sum: 9111391c6252b599ac5002cf021b5091
     Pseudo is Projector augmented-wave + core cor, Zval =  3.0
     Generated using "atomic" code by A. Dal Corso  v.5.0.2 svn rev. 9415
     Shape of augmentation charge: PSQ
     Using radial grid of 1135 points,  4 beta functions with: 
                l(1) =   0
                l(2) =   0
                l(3) =   1
                l(4) =   1
     Q(r) pseudized with 0 coefficients 


     atomic species   valence    mass     pseudopotential
     Fe               16.00    55.84500     Fe( 1.00)
     Al                3.00    26.98154     Al( 1.00)

      8 Sym. Ops., with inversion, found ( 6 have fractional translation)



   Cartesian axes

     site n.     atom                  positions (alat units)
         1        Fe     tau(   1) = (   0.7500000   1.2492305   1.5877123  )
         2        Fe     tau(   2) = (   0.2500000   0.4164102   0.1443375  )
         3        Al     tau(   3) = (   0.2500000   1.2492305   0.7216874  )
         4        Al     tau(   4) = (   0.7500000   0.4164102   1.0103624  )

     number of k points=    36  Marzari-Vanderbilt smearing, width (Ry)=  0.0050
                       cart. coord. in units 2pi/alat
        k(    1) = (   0.0000000   0.0000000   0.0000000), wk =   0.0208333
        k(    2) = (   0.0000000   0.0000000   0.1443377), wk =   0.0416667
        k(    3) = (   0.0000000   0.0000000  -0.2886753), wk =   0.0208333
        k(    4) = (   0.0000000   0.1500924   0.0000000), wk =   0.0416667
        k(    5) = (   0.0000000   0.1500924   0.1443377), wk =   0.0833333
        k(    6) = (   0.0000000   0.1500924  -0.2886753), wk =   0.0416667
        k(    7) = (   0.0000000  -0.3001848   0.0000000), wk =   0.0208333
        k(    8) = (   0.0000000  -0.3001848   0.1443377), wk =   0.0416667
        k(    9) = (   0.0000000  -0.3001848  -0.2886753), wk =   0.0208333
        k(   10) = (   0.1666667   0.0000000   0.0000000), wk =   0.0416667
        k(   11) = (   0.1666667   0.0000000   0.1443377), wk =   0.0833333
        k(   12) = (   0.1666667   0.0000000  -0.2886753), wk =   0.0416667
        k(   13) = (   0.1666667   0.1500924   0.0000000), wk =   0.0833333
        k(   14) = (   0.1666667   0.1500924   0.1443377), wk =   0.1666667
        k(   15) = (   0.1666667   0.1500924  -0.2886753), wk =   0.0833333
        k(   16) = (   0.1666667  -0.3001848   0.0000000), wk =   0.0416667
        k(   17) = (   0.1666667  -0.3001848   0.1443377), wk =   0.0833333
        k(   18) = (   0.1666667  -0.3001848  -0.2886753), wk =   0.0416667
        k(   19) = (   0.3333333   0.0000000   0.0000000), wk =   0.0416667
        k(   20) = (   0.3333333   0.0000000   0.1443377), wk =   0.0833333
        k(   21) = (   0.3333333   0.0000000  -0.2886753), wk =   0.0416667
        k(   22) = (   0.3333333   0.1500924   0.0000000), wk =   0.0833333
        k(   23) = (   0.3333333   0.1500924   0.1443377), wk =   0.1666667
        k(   24) = (   0.3333333   0.1500924  -0.2886753), wk =   0.0833333
        k(   25) = (   0.3333333  -0.3001848   0.0000000), wk =   0.0416667
        k(   26) = (   0.3333333  -0.3001848   0.1443377), wk =   0.0833333
        k(   27) = (   0.3333333  -0.3001848  -0.2886753), wk =   0.0416667
        k(   28) = (  -0.5000000   0.0000000   0.0000000), wk =   0.0208333
        k(   29) = (  -0.5000000   0.0000000   0.1443377), wk =   0.0416667
        k(   30) = (  -0.5000000   0.0000000  -0.2886753), wk =   0.0208333
        k(   31) = (  -0.5000000   0.1500924   0.0000000), wk =   0.0416667
        k(   32) = (  -0.5000000   0.1500924   0.1443377), wk =   0.0833333
        k(   33) = (  -0.5000000   0.1500924  -0.2886753), wk =   0.0416667
        k(   34) = (  -0.5000000  -0.3001848   0.0000000), wk =   0.0208333
        k(   35) = (  -0.5000000  -0.3001848   0.1443377), wk =   0.0416667
        k(   36) = (  -0.5000000  -0.3001848  -0.2886753), wk =   0.0208333

     Dense  grid:   103323 G-vectors     FFT dimensions: (  48,  72,  72)

     Smooth grid:    26119 G-vectors     FFT dimensions: (  30,  48,  45)

     Estimated max dynamical RAM per process >     428.75 MB

     Check: negative core charge=   -0.000013

     Initial potential from superposition of free atoms

     starting charge      37.9945, renormalised to      38.0000
     Starting wfcs are   34 randomized atomic wfcs
     Checking if some PAW data can be deallocated... 

     total cpu time spent up to now is        5.4 secs

     Self-consistent Calculation

     iteration #  1     ecut=    70.00 Ry     beta= 0.70
     Davidson diagonalization with overlap
     ethr =  1.00E-02,  avg # of iterations =  2.8

     Threshold (ethr) on eigenvalues was too large:
     Diagonalizing with lowered threshold

     Davidson diagonalization with overlap
     ethr =  4.90E-04,  avg # of iterations =  4.4

     total cpu time spent up to now is       16.5 secs

     total energy              =    -737.45014457 Ry
     estimated scf accuracy    <       0.17198989 Ry

     iteration #  2     ecut=    70.00 Ry     beta= 0.70
     Davidson diagonalization with overlap
     ethr =  4.53E-04,  avg # of iterations =  4.5

     total cpu time spent up to now is       24.3 secs

     total energy              =    -737.27157532 Ry
     estimated scf accuracy    <       2.36024516 Ry

     iteration #  3     ecut=    70.00 Ry     beta= 0.70
     Davidson diagonalization with overlap
     ethr =  4.53E-04,  avg # of iterations =  4.4

     total cpu time spent up to now is       32.2 secs

     total energy              =    -737.53579646 Ry
     estimated scf accuracy    <       0.04644700 Ry

     iteration #  4     ecut=    70.00 Ry     beta= 0.70
     Davidson diagonalization with overlap
     ethr =  1.22E-04,  avg # of iterations =  2.0

     total cpu time spent up to now is       38.9 secs

     total energy              =    -737.54281765 Ry
     estimated scf accuracy    <       0.00063746 Ry

     iteration #  5     ecut=    70.00 Ry     beta= 0.70
     Davidson diagonalization with overlap
     ethr =  1.68E-06,  avg # of iterations =  6.7

     total cpu time spent up to now is       48.7 secs

     total energy              =    -737.54350443 Ry
     estimated scf accuracy    <       0.00007010 Ry

     iteration #  6     ecut=    70.00 Ry     beta= 0.70
     Davidson diagonalization with overlap
     ethr =  1.84E-07,  avg # of iterations =  4.7

     total cpu time spent up to now is       55.3 secs

     total energy              =    -737.54352858 Ry
     estimated scf accuracy    <       0.00000333 Ry

     iteration #  7     ecut=    70.00 Ry     beta= 0.70
     Davidson diagonalization with overlap
     ethr =  8.76E-09,  avg # of iterations =  5.3

     total cpu time spent up to now is       63.6 secs

     total energy              =    -737.54353107 Ry
     estimated scf accuracy    <       0.00000077 Ry

     iteration #  8     ecut=    70.00 Ry     beta= 0.70
     Davidson diagonalization with overlap
     ethr =  2.02E-09,  avg # of iterations =  2.4

     total cpu time spent up to now is       68.9 secs

     total energy              =    -737.54353130 Ry
     estimated scf accuracy    <       0.00000003 Ry

     iteration #  9     ecut=    70.00 Ry     beta= 0.70
     Davidson diagonalization with overlap
     ethr =  8.52E-11,  avg # of iterations =  7.1

     total cpu time spent up to now is       79.5 secs

     End of self-consistent calculation

          k = 0.0000 0.0000 0.0000 (  3283 PWs)   bands (ev):

   -72.9838 -72.9500 -39.2311 -39.0237 -39.0230 -38.9688 -38.8937 -38.8895
     2.7944   8.9634   9.8871  10.0975  10.4823  11.5296  11.8132  12.5032
    12.8950  12.9391  13.5899  13.7410  14.4804  14.5402  15.8397

          k = 0.0000 0.0000 0.1443 (  3292 PWs)   bands (ev):

   -72.9838 -72.9501 -39.2311 -39.0240 -39.0233 -38.9687 -38.8936 -38.8900
     3.1991   7.5467   9.6423   9.7802  11.2671  11.8559  12.4237  12.5531
    12.9010  12.9315  13.5594  13.7522  14.2504  14.4763  17.0646

          k = 0.0000 0.0000-0.2887 (  3278 PWs)   bands (ev):

   -72.9838 -72.9500 -39.2306 -39.0240 -39.0234 -38.9684 -38.8942 -38.8898
     3.8426   6.1868   9.3682  10.1795  11.7385  11.8558  12.1003  12.9071
    12.9237  13.4862  13.5323  13.7602  14.1833  14.4722  14.9959

          k = 0.0000 0.1501 0.0000 (  3258 PWs)   bands (ev):

   -72.9788 -72.9550 -39.2034 -39.0594 -39.0150 -38.9768 -38.8898 -38.8844
     3.3020   7.0222  10.1600  10.2439  10.9057  11.4510  12.3663  12.8014
    12.9564  13.0100  13.6185  13.7056  14.3182  14.3647  17.3064

          k = 0.0000 0.1501 0.1443 (  3284 PWs)   bands (ev):

   -72.9788 -72.9550 -39.2037 -39.0597 -39.0153 -38.9768 -38.8902 -38.8850
     3.6924   7.2461   8.1694  10.3006  11.4489  11.5664  12.3033  12.5830
    13.0078  13.2796  13.6165  13.6906  14.3245  14.3378  17.1769

          k = 0.0000 0.1501-0.2887 (  3274 PWs)   bands (ev):

   -72.9788 -72.9550 -39.2038 -39.0595 -39.0153 -38.9766 -38.8904 -38.8851
     4.2994   6.6958   7.7514   9.8187  11.7017  11.7683  12.2010  12.3023
    13.0054  13.6143  13.6764  13.7704  13.7706  14.3304  16.8872

          k = 0.0000-0.3002 0.0000 (  3278 PWs)   bands (ev):

   -72.9669 -72.9669 -39.1350 -39.1350 -38.9962 -38.9962 -38.8840 -38.8840
     4.7745   4.7745  10.3903  10.3903  11.3575  11.3575  12.4126  12.4126
    13.3091  13.3091  13.7674  13.7674  13.9910  13.9910  16.7942

          k = 0.0000-0.3002 0.1443 (  3276 PWs)   bands (ev):

   -72.9669 -72.9669 -39.1352 -39.1352 -38.9959 -38.9959 -38.8842 -38.8842
     5.1226   5.1226   9.2908   9.2908  11.5448  11.5448  12.1203  12.1203
    13.2974  13.2974  13.8945  13.8945  13.9983  13.9983  18.5178

          k = 0.0000-0.3002-0.2887 (  3284 PWs)   bands (ev):

   -72.9669 -72.9669 -39.1353 -39.1353 -38.9960 -38.9960 -38.8846 -38.8846
     5.6309   5.6309   8.2369   8.2369  11.6493  11.6493  11.9534  11.9534
    13.2859  13.2859  13.9705  13.9705  14.0053  14.0053  20.6261

          k = 0.1667 0.0000 0.0000 (  3279 PWs)   bands (ev):

   -72.9765 -72.9473 -39.2125 -39.0672 -39.0330 -39.0204 -38.8873 -38.8838
     3.4221   9.3243  10.2919  10.4679  10.9300  11.5891  11.7488  12.5644
    12.6100  12.7898  13.4465  14.0601  14.7200  14.8743  15.9183

          k = 0.1667 0.0000 0.1443 (  3288 PWs)   bands (ev):

   -72.9765 -72.9473 -39.2125 -39.0671 -39.0334 -39.0206 -38.8877 -38.8839
     3.8086   8.0781  10.0226  10.2827  11.5263  11.7744  12.2034  12.5692
    12.6327  12.9643  13.4117  13.5457  14.6628  14.7892  17.4883

          k = 0.1667 0.0000-0.2887 (  3286 PWs)   bands (ev):

   -72.9765 -72.9473 -39.2124 -39.0669 -39.0335 -39.0206 -38.8880 -38.8839
     4.4065   6.8335   9.7604  10.6011  11.7371  12.0500  12.3698  12.4924
    12.6931  13.2917  13.5000  13.5644  13.6409  15.1621  16.1624

          k = 0.1667 0.1501 0.0000 (  3268 PWs)   bands (ev):

   -72.9723 -72.9516 -39.1929 -39.0773 -39.0552 -39.0123 -38.8848 -38.8814
     3.9202   7.5652  10.4219  10.6100  11.2348  11.4526  12.4151  12.4316
    12.7426  12.8944  13.7126  13.7505  14.8029  14.8201  17.3907

          k = 0.1667 0.1501 0.1443 (  3270 PWs)   bands (ev):

   -72.9722 -72.9516 -39.1932 -39.0772 -39.0553 -39.0123 -38.8850 -38.8814
     4.2930   7.7560   8.7293  10.7408  11.4993  11.6826  12.2106  12.4225
    12.7016  13.2203  13.5347  13.7032  14.1140  15.1839  17.3503

          k = 0.1667 0.1501-0.2887 (  3274 PWs)   bands (ev):

   -72.9722 -72.9516 -39.1933 -39.0772 -39.0552 -39.0123 -38.8853 -38.8816
     4.8579   7.3034   8.2722  10.3560  11.8249  11.8924  11.9633  12.4176
    12.6495  13.2861  13.3311  13.7515  13.9231  14.8750  17.1492

          k = 0.1667-0.3002 0.0000 (  3268 PWs)   bands (ev):

   -72.9619 -72.9619 -39.1415 -39.1415 -39.0299 -39.0299 -38.8807 -38.8807
     5.3661   5.3661  10.7644  10.7644  11.5849  11.5849  11.9859  11.9859
    13.1241  13.1241  13.7113  13.7113  14.8318  14.8318  16.9901

          k = 0.1667-0.3002 0.1443 (  3272 PWs)   bands (ev):

   -72.9619 -72.9619 -39.1417 -39.1417 -39.0298 -39.0298 -38.8809 -38.8809
     5.6967   5.6967   9.7838   9.7838  11.7500  11.7500  11.9785  11.9785
    13.0470  13.0470  13.8187  13.8187  14.1957  14.1957  19.0551

          k = 0.1667-0.3002-0.2887 (  3276 PWs)   bands (ev):

   -72.9619 -72.9619 -39.1418 -39.1418 -39.0298 -39.0298 -38.8811 -38.8811
     6.1679   6.1679   8.8297   8.8297  11.8261  11.8261  11.9769  11.9769
    12.9614  12.9614  13.7423  13.7423  14.1244  14.1244  20.4730

          k = 0.3333 0.0000 0.0000 (  3263 PWs)   bands (ev):

   -72.9603 -72.9434 -39.1653 -39.1506 -39.1238 -39.0619 -38.8762 -38.8738
     5.2413   9.9591  10.6878  10.9136  11.1030  11.4593  11.9558  12.4281
    12.8213  12.8607  14.0263  14.9143  15.2679  15.4782  15.6394

          k = 0.3333 0.0000 0.1443 (  3256 PWs)   bands (ev):

   -72.9603 -72.9434 -39.1653 -39.1506 -39.1238 -39.0618 -38.8760 -38.8738
     5.5707   9.3704  10.7581  10.8282  11.2207  11.5385  11.8452  12.4619
    12.7520  13.1633  13.5369  14.0333  14.6390  15.4314  16.9744

          k = 0.3333 0.0000-0.2887 (  3244 PWs)   bands (ev):

   -72.9603 -72.9434 -39.1651 -39.1504 -39.1237 -39.0615 -38.8760 -38.8738
     6.0393   8.5877  10.6490  10.9613  11.2356  11.5526  12.3732  12.3737
    12.4824  13.2486  13.4451  13.6856  14.0842  15.7198  18.0002

          k = 0.3333 0.1501 0.0000 (  3272 PWs)   bands (ev):

   -72.9579 -72.9459 -39.1919 -39.1535 -39.1054 -39.0511 -38.8756 -38.8744
     5.7040   8.9752  10.5631  10.8868  11.3590  11.7207  11.9582  12.0359
    12.8373  13.0944  13.9961  14.2604  15.3954  15.7563  15.9057

          k = 0.3333 0.1501 0.1443 (  3257 PWs)   bands (ev):

   -72.9579 -72.9459 -39.1917 -39.1533 -39.1054 -39.0510 -38.8755 -38.8743
     6.0231   9.0908  10.0266  10.9108  11.2637  11.6447  12.0148  12.2405
    12.9895  13.0903  13.5623  13.9811  14.1485  15.2943  17.3142

          k = 0.3333 0.1501-0.2887 (  3260 PWs)   bands (ev):

   -72.9579 -72.9459 -39.1916 -39.1532 -39.1054 -39.0512 -38.8756 -38.8744
     6.4713   8.8381   9.7599  11.1014  11.2792  11.4565  12.1936  12.3288
    12.3821  12.9409  13.5026  13.7324  14.0260  15.8949  16.3047

          k = 0.3333-0.3002 0.0000 (  3258 PWs)   bands (ev):

   -72.9519 -72.9519 -39.1884 -39.1884 -39.0624 -39.0624 -38.8748 -38.8748
     7.0378   7.0378  11.0683  11.0683  11.4001  11.4001  12.1135  12.1135
    12.9378  12.9378  13.7577  13.7577  15.8359  15.8359  16.7149

          k = 0.3333-0.3002 0.1443 (  3258 PWs)   bands (ev):

   -72.9519 -72.9519 -39.1884 -39.1884 -39.0625 -39.0625 -38.8748 -38.8748
     7.3218   7.3218  10.5542  10.5542  11.6386  11.6386  12.1721  12.1721
    12.9371  12.9371  13.5871  13.5871  14.5059  14.5059  17.2026

          k = 0.3333-0.3002-0.2887 (  3272 PWs)   bands (ev):

   -72.9519 -72.9519 -39.1885 -39.1885 -39.0625 -39.0625 -38.8750 -38.8750
     7.6958   7.6958  10.1319  10.1319  11.6384  11.6384  12.2916  12.2916
    12.4612  12.4612  13.6043  13.6043  14.3246  14.3246  17.1949

          k =-0.5000 0.0000 0.0000 (  3256 PWs)   bands (ev):

   -72.9469 -72.9469 -39.1832 -39.1832 -39.1093 -39.1093 -38.8698 -38.8698
     8.0168   8.0168  10.4700  10.4700  11.2280  11.2280  12.7344  12.7344
    12.9370  12.9370  14.7627  14.7627  16.7084  16.7084  16.8744

          k =-0.5000 0.0000 0.1443 (  3252 PWs)   bands (ev):

   -72.9469 -72.9469 -39.1833 -39.1833 -39.1088 -39.1088 -38.8700 -38.8700
     8.2391   8.2391  10.5229  10.5229  11.1794  11.1794  12.6706  12.6706
    12.9801  12.9801  14.0148  14.0148  15.7047  15.7047  17.0148

          k =-0.5000 0.0000-0.2887 (  3212 PWs)   bands (ev):

   -72.9469 -72.9469 -39.1831 -39.1831 -39.1085 -39.1085 -38.8695 -38.8695
     8.4878   8.4878  10.7475  10.7475  11.1335  11.1335  12.1357  12.1357
    13.0202  13.0202  13.4585  13.4585  15.6793  15.6793  17.1729

          k =-0.5000 0.1501 0.0000 (  3244 PWs)   bands (ev):

   -72.9469 -72.9469 -39.2080 -39.2080 -39.0829 -39.0829 -38.8709 -38.8709
     8.3343   8.3343  10.6475  10.6475  11.2025  11.2025  12.1589  12.1589
    12.6832  12.6832  14.6833  14.6833  15.3405  15.3405  17.3707

          k =-0.5000 0.1501 0.1443 (  3250 PWs)   bands (ev):

   -72.9469 -72.9469 -39.2082 -39.2082 -39.0830 -39.0830 -38.8709 -38.8709
     8.5897   8.5897  10.3426  10.3426  11.5818  11.5818  12.0642  12.0642
    13.0031  13.0031  13.8257  13.8257  14.9770  14.9770  16.9845

          k =-0.5000 0.1501-0.2887 (  3244 PWs)   bands (ev):

   -72.9469 -72.9469 -39.2081 -39.2081 -39.0829 -39.0829 -38.8708 -38.8708
     8.8639   8.8639  10.3597  10.3597  11.6929  11.6929  11.9270  11.9270
    12.7357  12.7357  13.4646  13.4646  15.3215  15.3215  16.2277

          k =-0.5000-0.3002 0.0000 (  3256 PWs)   bands (ev):

   -72.9469 -72.9469 -39.2258 -39.2258 -39.0645 -39.0645 -38.8718 -38.8718
     8.8129   8.8129  10.7209  10.7209  10.9968  10.9968  11.5422  11.5422
    12.8740  12.8740  14.0248  14.0248  15.1140  15.1140  18.0392

          k =-0.5000-0.3002 0.1443 (  3260 PWs)   bands (ev):

   -72.9469 -72.9469 -39.2256 -39.2256 -39.0646 -39.0646 -38.8720 -38.8720
     9.2295   9.2295   9.9375   9.9375  11.4193  11.4193  12.1502  12.1502
    12.9689  12.9689  13.4146  13.4146  14.6225  14.6225  17.4523

          k =-0.5000-0.3002-0.2887 (  3272 PWs)   bands (ev):

   -72.9469 -72.9469 -39.2256 -39.2256 -39.0646 -39.0646 -38.8722 -38.8722
     9.6227   9.6227   9.9995   9.9995  10.9135  10.9135  12.5811  12.5811
    12.6805  12.6805  13.6848  13.6848  14.4944  14.4944  15.8569

     the Fermi energy is    13.7056 ev

!    total energy              =    -737.54353135 Ry
     total all-electron energy =     -6062.422166 Ry
     estimated scf accuracy    <          1.6E-09 Ry
     smearing contrib. (-TS)   =      -0.00020164 Ry
     internal energy E=F+TS    =    -737.54332972 Ry

     The total energy is F=E-TS. E is the sum of the following terms:
     one-electron contribution =    -359.39965633 Ry
     hartree contribution      =     200.09255020 Ry
     xc contribution           =     -75.74352341 Ry
     ewald contribution        =    -281.67345551 Ry
     one-center paw contrib.   =    -220.81924466 Ry

     convergence has been achieved in   9 iterations

     Forces acting on atoms (cartesian axes, Ry/au):

     atom    1 type  1   force =     0.00000000    0.00000000   -0.00677672
     atom    2 type  1   force =     0.00000000    0.00000000    0.00677672
     atom    3 type  2   force =     0.00000000    0.00000000   -0.02119816
     atom    4 type  2   force =     0.00000000    0.00000000    0.02119816

     Total force =     0.031473     Total SCF correction =     0.000003


     Computing stress (Cartesian axis) and pressure

          total   stress  (Ry/bohr**3)                   (kbar)     P=      -14.54
   0.00079953   0.00000000   0.00000000          117.61        0.00        0.00
   0.00000000  -0.00020279   0.00000000            0.00      -29.83        0.00
   0.00000000   0.00000000  -0.00089316            0.00        0.00     -131.39


     Writing all to output data dir ./FeAl.save/ :
     XML data file, charge density, pseudopotentials, collected wavefunctions

     init_run     :      4.20s CPU      5.29s WALL (       1 calls)
     electrons    :     71.72s CPU     74.10s WALL (       1 calls)
     forces       :      1.25s CPU      1.36s WALL (       1 calls)
     stress       :      4.88s CPU      6.42s WALL (       1 calls)

     Called by init_run:
     wfcinit      :      2.46s CPU      3.39s WALL (       1 calls)
     potinit      :      0.60s CPU      0.63s WALL (       1 calls)
     hinit0       :      0.83s CPU      0.82s WALL (       1 calls)

     Called by electrons:
     c_bands      :     58.33s CPU     57.96s WALL (      10 calls)
     sum_band     :      7.68s CPU      9.53s WALL (      10 calls)
     v_of_rho     :      0.62s CPU      0.63s WALL (      10 calls)
     newd         :      2.72s CPU      3.82s WALL (      10 calls)
     PAW_pot      :      2.91s CPU      2.85s WALL (      10 calls)
     mix_rho      :      0.04s CPU      0.04s WALL (      10 calls)

     Called by c_bands:
     init_us_2    :      0.72s CPU      0.70s WALL (     828 calls)
     cegterg      :     56.87s CPU     56.54s WALL (     360 calls)

     Called by *egterg:
     cdiaghg      :      1.09s CPU      1.06s WALL (    1921 calls)
     h_psi        :     29.04s CPU     29.37s WALL (    1993 calls)
     s_psi        :      6.18s CPU      7.01s WALL (    1993 calls)
     g_psi        :      0.16s CPU      0.16s WALL (    1597 calls)

     Called by h_psi:
     h_psi:calbec :      6.24s CPU      6.08s WALL (    1993 calls)
     vloc_psi     :     16.49s CPU     17.13s WALL (    1993 calls)
                                        0.00s GPU  (    1993 calls)
     add_vuspsi   :      6.15s CPU      6.01s WALL (    1993 calls)

     General routines
     calbec       :     10.88s CPU     10.64s WALL (    2965 calls)
     fft          :      0.61s CPU      0.60s WALL (     154 calls)
     ffts         :      0.20s CPU      0.20s WALL (      20 calls)
     fftw         :     16.03s CPU     16.67s WALL (   63176 calls)
     interpolate  :      0.22s CPU      0.22s WALL (      10 calls)

     Parallel routines

     PWSCF        :   1m22.16s CPU   1m27.34s WALL


   This run was terminated on:   5:17:23  10Jul2026            

=------------------------------------------------------------------------------=
   JOB DONE.
=------------------------------------------------------------------------------=
