
     Program PWSCF v.7.5 starts on 10Jul2026 at  5:14:24 

     This program is part of the open-source Quantum ESPRESSO suite
     for quantum simulation of materials; please cite
         "P. Giannozzi et al., J. Phys.:Condens. Matter 21 395502 (2009);
         "P. Giannozzi et al., J. Phys.:Condens. Matter 29 465901 (2017);
         "P. Giannozzi et al., J. Chem. Phys. 152 154105 (2020);
          URL http://www.quantum-espresso.org", 
     in publications or presentations arising from this work. More details at
     http://www.quantum-espresso.org/quote

     Parallel version (MPI), running on     1 processors

     MPI processes distributed on     1 nodes
     9384 MiB available memory on the printing compute node when the environment starts

     Reading input from espresso.pwi
Warning: card &CELL ignored
Warning: card &FCP ignored
Warning: card &RISM ignored

     Current dimensions of program PWSCF are:
     Max number of different atomic species (ntypx) = 10
     Max number of k-points (npk) =  40000
     Max angular momentum in pseudopotentials (lmaxx) =  4
     file Fe.pbe-spn-kjpaw_psl.0.2.1.UPF: wavefunction(s)  3D renormalized
     file Al.pbe-n-kjpaw_psl.0.1.UPF: wavefunction(s)  3S renormalized
     Message from routine setup:
     using ibrav=0 with symmetry is DISCOURAGED, use correct ibrav instead

     Subspace diagonalization in iterative solution of the eigenvalue problem:
     a serial algorithm will be used


     G-vector sticks info
     --------------------
     sticks:   dense  smooth     PW     G-vecs:    dense   smooth      PW
     Sum        2183     867    265               103277    26043    4377

     Using Slab Decomposition



     bravais-lattice index     =            0
     lattice parameter (alat)  =       4.8715  a.u.
     unit-cell volume          =     330.2631 (a.u.)^3
     number of atoms/cell      =            4
     number of atomic types    =            2
     number of electrons       =        38.00
     number of Kohn-Sham states=           23
     kinetic-energy cutoff     =      70.0000  Ry
     charge density cutoff     =     700.0000  Ry
     scf convergence threshold =      1.0E-08
     mixing beta               =       0.7000
     number of iterations used =            8  plain     mixing
     Exchange-correlation= SLA  PW   PBX  PBC
                           (   1   4   3   4   0   0   0)

     celldm(1)=   4.871534  celldm(2)=   0.000000  celldm(3)=   0.000000
     celldm(4)=   0.000000  celldm(5)=   0.000000  celldm(6)=   0.000000

     crystal axes: (cart. coord. in units of alat)
               a(1) = (   1.000000   0.000000   0.000000 )  
               a(2) = (   0.000000   1.649311   0.000000 )  
               a(3) = (   0.000000   0.000000   1.732050 )  

     reciprocal axes: (cart. coord. in units 2 pi/alat)
               b(1) = (  1.000000  0.000000  0.000000 )  
               b(2) = (  0.000000  0.606314  0.000000 )  
               b(3) = (  0.000000  0.000000  0.577351 )  


     PseudoPot. # 1 for Fe read from file:
     /home/yluo/ASE/volume_optimization/CMP_pseudos/Fe.pbe-spn-kjpaw_psl.0.2.1.UPF
     MD5 check sum: 4338034a7fd945be4bb7db5fd3b2d142
     Pseudo is Projector augmented-wave + core cor, Zval = 16.0
     Generated using "atomic" code by A. Dal Corso  v.5.0.2 svn rev. 9415
     Shape of augmentation charge: PSQ
     Using radial grid of 1191 points,  6 beta functions with: 
                l(1) =   0
                l(2) =   0
                l(3) =   1
                l(4) =   1
                l(5) =   2
                l(6) =   2
     Q(r) pseudized with 0 coefficients 


     PseudoPot. # 2 for Al read from file:
     /home/yluo/ASE/volume_optimization/CMP_pseudos/Al.pbe-n-kjpaw_psl.0.1.UPF
     MD5 check sum: 9111391c6252b599ac5002cf021b5091
     Pseudo is Projector augmented-wave + core cor, Zval =  3.0
     Generated using "atomic" code by A. Dal Corso  v.5.0.2 svn rev. 9415
     Shape of augmentation charge: PSQ
     Using radial grid of 1135 points,  4 beta functions with: 
                l(1) =   0
                l(2) =   0
                l(3) =   1
                l(4) =   1
     Q(r) pseudized with 0 coefficients 


     atomic species   valence    mass     pseudopotential
     Fe               16.00    55.84500     Fe( 1.00)
     Al                3.00    26.98154     Al( 1.00)

      8 Sym. Ops., with inversion, found ( 6 have fractional translation)



   Cartesian axes

     site n.     atom                  positions (alat units)
         1        Fe     tau(   1) = (   0.7500000   1.2369831   1.5877123  )
         2        Fe     tau(   2) = (   0.2500000   0.4123277   0.1443375  )
         3        Al     tau(   3) = (   0.2500000   1.2369831   0.7216874  )
         4        Al     tau(   4) = (   0.7500000   0.4123277   1.0103624  )

     number of k points=    36  Marzari-Vanderbilt smearing, width (Ry)=  0.0050
                       cart. coord. in units 2pi/alat
        k(    1) = (   0.0000000   0.0000000   0.0000000), wk =   0.0208333
        k(    2) = (   0.0000000   0.0000000   0.1443377), wk =   0.0416667
        k(    3) = (   0.0000000   0.0000000  -0.2886753), wk =   0.0208333
        k(    4) = (   0.0000000   0.1515785   0.0000000), wk =   0.0416667
        k(    5) = (   0.0000000   0.1515785   0.1443377), wk =   0.0833333
        k(    6) = (   0.0000000   0.1515785  -0.2886753), wk =   0.0416667
        k(    7) = (   0.0000000  -0.3031569   0.0000000), wk =   0.0208333
        k(    8) = (   0.0000000  -0.3031569   0.1443377), wk =   0.0416667
        k(    9) = (   0.0000000  -0.3031569  -0.2886753), wk =   0.0208333
        k(   10) = (   0.1666667   0.0000000   0.0000000), wk =   0.0416667
        k(   11) = (   0.1666667   0.0000000   0.1443377), wk =   0.0833333
        k(   12) = (   0.1666667   0.0000000  -0.2886753), wk =   0.0416667
        k(   13) = (   0.1666667   0.1515785   0.0000000), wk =   0.0833333
        k(   14) = (   0.1666667   0.1515785   0.1443377), wk =   0.1666667
        k(   15) = (   0.1666667   0.1515785  -0.2886753), wk =   0.0833333
        k(   16) = (   0.1666667  -0.3031569   0.0000000), wk =   0.0416667
        k(   17) = (   0.1666667  -0.3031569   0.1443377), wk =   0.0833333
        k(   18) = (   0.1666667  -0.3031569  -0.2886753), wk =   0.0416667
        k(   19) = (   0.3333333   0.0000000   0.0000000), wk =   0.0416667
        k(   20) = (   0.3333333   0.0000000   0.1443377), wk =   0.0833333
        k(   21) = (   0.3333333   0.0000000  -0.2886753), wk =   0.0416667
        k(   22) = (   0.3333333   0.1515785   0.0000000), wk =   0.0833333
        k(   23) = (   0.3333333   0.1515785   0.1443377), wk =   0.1666667
        k(   24) = (   0.3333333   0.1515785  -0.2886753), wk =   0.0833333
        k(   25) = (   0.3333333  -0.3031569   0.0000000), wk =   0.0416667
        k(   26) = (   0.3333333  -0.3031569   0.1443377), wk =   0.0833333
        k(   27) = (   0.3333333  -0.3031569  -0.2886753), wk =   0.0416667
        k(   28) = (  -0.5000000   0.0000000   0.0000000), wk =   0.0208333
        k(   29) = (  -0.5000000   0.0000000   0.1443377), wk =   0.0416667
        k(   30) = (  -0.5000000   0.0000000  -0.2886753), wk =   0.0208333
        k(   31) = (  -0.5000000   0.1515785   0.0000000), wk =   0.0416667
        k(   32) = (  -0.5000000   0.1515785   0.1443377), wk =   0.0833333
        k(   33) = (  -0.5000000   0.1515785  -0.2886753), wk =   0.0416667
        k(   34) = (  -0.5000000  -0.3031569   0.0000000), wk =   0.0208333
        k(   35) = (  -0.5000000  -0.3031569   0.1443377), wk =   0.0416667
        k(   36) = (  -0.5000000  -0.3031569  -0.2886753), wk =   0.0208333

     Dense  grid:   103277 G-vectors     FFT dimensions: (  48,  72,  72)

     Smooth grid:    26043 G-vectors     FFT dimensions: (  30,  48,  45)

     Estimated max dynamical RAM per process >     428.59 MB

     Check: negative core charge=   -0.000013

     Initial potential from superposition of free atoms

     starting charge      37.9945, renormalised to      38.0000
     Starting wfcs are   34 randomized atomic wfcs
     Checking if some PAW data can be deallocated... 

     total cpu time spent up to now is        4.0 secs

     Self-consistent Calculation

     iteration #  1     ecut=    70.00 Ry     beta= 0.70
     Davidson diagonalization with overlap
     ethr =  1.00E-02,  avg # of iterations =  2.9

     Threshold (ethr) on eigenvalues was too large:
     Diagonalizing with lowered threshold

     Davidson diagonalization with overlap
     ethr =  4.82E-04,  avg # of iterations =  4.4

     total cpu time spent up to now is       15.1 secs

     total energy              =    -737.45296060 Ry
     estimated scf accuracy    <       0.16970569 Ry

     iteration #  2     ecut=    70.00 Ry     beta= 0.70
     Davidson diagonalization with overlap
     ethr =  4.47E-04,  avg # of iterations =  4.6

     total cpu time spent up to now is       22.4 secs

     total energy              =    -737.27652005 Ry
     estimated scf accuracy    <       2.29800453 Ry

     iteration #  3     ecut=    70.00 Ry     beta= 0.70
     Davidson diagonalization with overlap
     ethr =  4.47E-04,  avg # of iterations =  4.4

     total cpu time spent up to now is       30.4 secs

     total energy              =    -737.53587665 Ry
     estimated scf accuracy    <       0.05064225 Ry

     iteration #  4     ecut=    70.00 Ry     beta= 0.70
     Davidson diagonalization with overlap
     ethr =  1.33E-04,  avg # of iterations =  2.0

     total cpu time spent up to now is       35.9 secs

     total energy              =    -737.54307039 Ry
     estimated scf accuracy    <       0.00058203 Ry

     iteration #  5     ecut=    70.00 Ry     beta= 0.70
     Davidson diagonalization with overlap
     ethr =  1.53E-06,  avg # of iterations =  6.9

     total cpu time spent up to now is       45.6 secs

     total energy              =    -737.54371194 Ry
     estimated scf accuracy    <       0.00012321 Ry

     iteration #  6     ecut=    70.00 Ry     beta= 0.70
     Davidson diagonalization with overlap
     ethr =  3.24E-07,  avg # of iterations =  3.4

     total cpu time spent up to now is       51.5 secs

     total energy              =    -737.54374003 Ry
     estimated scf accuracy    <       0.00000453 Ry

     iteration #  7     ecut=    70.00 Ry     beta= 0.70
     Davidson diagonalization with overlap
     ethr =  1.19E-08,  avg # of iterations =  6.5

     total cpu time spent up to now is       61.0 secs

     total energy              =    -737.54374564 Ry
     estimated scf accuracy    <       0.00000129 Ry

     iteration #  8     ecut=    70.00 Ry     beta= 0.70
     Davidson diagonalization with overlap
     ethr =  3.40E-09,  avg # of iterations =  2.2

     total cpu time spent up to now is       67.5 secs

     total energy              =    -737.54374592 Ry
     estimated scf accuracy    <       0.00000003 Ry

     iteration #  9     ecut=    70.00 Ry     beta= 0.70
     Davidson diagonalization with overlap
     ethr =  9.03E-11,  avg # of iterations =  7.8

     total cpu time spent up to now is       79.3 secs

     total energy              =    -737.54374599 Ry
     estimated scf accuracy    <       0.00000001 Ry

     iteration # 10     ecut=    70.00 Ry     beta= 0.70
     Davidson diagonalization with overlap
     ethr =  3.16E-11,  avg # of iterations =  2.2

     total cpu time spent up to now is       84.6 secs

     End of self-consistent calculation

          k = 0.0000 0.0000 0.0000 (  3263 PWs)   bands (ev):

   -72.9761 -72.9409 -39.2295 -39.0169 -39.0111 -38.9538 -38.8885 -38.8845
     2.7860   8.9945   9.8667  10.1565  10.4830  11.5396  11.8291  12.5516
    12.8682  12.9557  13.5887  13.7440  14.5008  14.5451  15.8609

          k = 0.0000 0.0000 0.1443 (  3294 PWs)   bands (ev):

   -72.9761 -72.9409 -39.2299 -39.0173 -39.0115 -38.9541 -38.8887 -38.8851
     3.1855   7.5303   9.6875   9.8172  11.2827  11.8676  12.4700  12.5796
    12.8742  12.9489  13.5572  13.7555  14.3020  14.4966  17.0410

          k = 0.0000 0.0000-0.2887 (  3282 PWs)   bands (ev):

   -72.9761 -72.9409 -39.2296 -39.0174 -39.0116 -38.9539 -38.8889 -38.8849
     3.8172   6.1826   9.4095  10.1958  11.7889  11.8636  12.1384  12.8803
    12.9403  13.5293  13.5562  13.7638  14.2444  14.4924  14.9959

          k = 0.0000 0.1516 0.0000 (  3257 PWs)   bands (ev):

   -72.9709 -72.9460 -39.2018 -39.0540 -39.0027 -38.9624 -38.8846 -38.8791
     3.3002   7.0648  10.1516  10.2269  10.9206  11.4496  12.4085  12.8388
    12.9694  12.9848  13.6149  13.7092  14.3357  14.3773  17.3864

          k = 0.0000 0.1516 0.1443 (  3276 PWs)   bands (ev):

   -72.9709 -72.9461 -39.2018 -39.0542 -39.0031 -38.9624 -38.8850 -38.8796
     3.6854   7.2785   8.1629  10.3205  11.4462  11.5755  12.3472  12.6128
    12.9824  13.2977  13.6127  13.6936  14.3424  14.3821  17.2575

          k = 0.0000 0.1516-0.2887 (  3288 PWs)   bands (ev):

   -72.9709 -72.9461 -39.2018 -39.0541 -39.0033 -38.9625 -38.8853 -38.8801
     4.2805   6.7003   7.7766   9.8486  11.7037  11.7731  12.2520  12.3399
    12.9799  13.6105  13.6788  13.7832  13.8071  14.3486  16.9708

          k = 0.0000-0.3032 0.0000 (  3274 PWs)   bands (ev):

   -72.9585 -72.9585 -39.1317 -39.1317 -38.9828 -38.9828 -38.8785 -38.8785
     4.7916   4.7916  10.3877  10.3877  11.3657  11.3657  12.4281  12.4281
    13.2918  13.2918  13.7942  13.7942  14.0030  14.0030  16.7656

          k = 0.0000-0.3032 0.1443 (  3264 PWs)   bands (ev):

   -72.9585 -72.9585 -39.1317 -39.1317 -38.9825 -38.9825 -38.8787 -38.8787
     5.1341   5.1341   9.2984   9.2984  11.5490  11.5490  12.1445  12.1445
    13.2799  13.2799  13.9192  13.9192  14.0103  14.0103  18.4843

          k = 0.0000-0.3032-0.2887 (  3260 PWs)   bands (ev):

   -72.9585 -72.9585 -39.1316 -39.1316 -38.9825 -38.9825 -38.8790 -38.8790
     5.6309   5.6309   8.2600   8.2600  11.6454  11.6454  11.9878  11.9878
    13.2682  13.2682  13.9937  13.9937  14.0174  14.0174  20.6634

          k = 0.1667 0.0000 0.0000 (  3287 PWs)   bands (ev):

   -72.9690 -72.9385 -39.2111 -39.0537 -39.0269 -39.0047 -38.8827 -38.8789
     3.4094   9.3414  10.2696  10.5257  10.9327  11.5875  11.7703  12.5687
    12.6416  12.7818  13.4766  14.0487  14.7476  14.8568  15.9381

          k = 0.1667 0.0000 0.1443 (  3288 PWs)   bands (ev):

   -72.9690 -72.9385 -39.2111 -39.0538 -39.0271 -39.0047 -38.8827 -38.8789
     3.7910   8.0600  10.0614  10.3052  11.5269  11.7963  12.2303  12.5978
    12.6224  12.9642  13.4378  13.5560  14.6951  14.8133  17.4595

          k = 0.1667 0.0000-0.2887 (  3274 PWs)   bands (ev):

   -72.9690 -72.9384 -39.2109 -39.0535 -39.0269 -39.0045 -38.8829 -38.8791
     4.3783   6.8248   9.7943  10.6055  11.7662  12.0546  12.3983  12.5225
    12.6779  13.3049  13.5148  13.5807  13.7048  15.1630  16.2129

          k = 0.1667 0.1516 0.0000 (  3274 PWs)   bands (ev):

   -72.9645 -72.9429 -39.1911 -39.0709 -39.0415 -38.9977 -38.8799 -38.8764
     3.9142   7.6028  10.4078  10.5983  11.2414  11.4491  12.4361  12.4527
    12.7470  12.9188  13.7337  13.7466  14.7892  14.8270  17.4343

          k = 0.1667 0.1516 0.1443 (  3267 PWs)   bands (ev):

   -72.9645 -72.9429 -39.1911 -39.0708 -39.0416 -38.9977 -38.8800 -38.8765
     4.2819   7.7833   8.7207  10.7519  11.4994  11.6848  12.2306  12.4420
    12.7060  13.2306  13.5448  13.7175  14.1301  15.2136  17.4136

          k = 0.1667 0.1516-0.2887 (  3282 PWs)   bands (ev):

   -72.9645 -72.9429 -39.1911 -39.0708 -39.0417 -38.9979 -38.8804 -38.8767
     4.8362   7.3040   8.2926  10.3776  11.8476  11.8973  11.9613  12.4384
    12.6501  13.2948  13.3394  13.7677  13.9524  14.8999  17.2139

          k = 0.1667-0.3032 0.0000 (  3268 PWs)   bands (ev):

   -72.9537 -72.9537 -39.1377 -39.1377 -39.0155 -39.0155 -38.8756 -38.8756
     5.3788   5.3788  10.7578  10.7578  11.5908  11.5908  12.0015  12.0015
    13.1264  13.1264  13.7228  13.7228  14.8364  14.8364  16.9566

          k = 0.1667-0.3032 0.1443 (  3272 PWs)   bands (ev):

   -72.9537 -72.9537 -39.1378 -39.1378 -39.0155 -39.0155 -38.8758 -38.8758
     5.7040   5.7040   9.7874   9.7874  11.7533  11.7533  11.9916  11.9916
    13.0489  13.0489  13.8320  13.8320  14.2075  14.2075  19.0154

          k = 0.1667-0.3032-0.2887 (  3276 PWs)   bands (ev):

   -72.9537 -72.9537 -39.1380 -39.1380 -39.0154 -39.0154 -38.8759 -38.8759
     6.1650   6.1650   8.8468   8.8468  11.8290  11.8290  11.9870  11.9870
    12.9641  12.9641  13.7613  13.7613  14.1360  14.1360  20.4597

          k = 0.3333 0.0000 0.0000 (  3269 PWs)   bands (ev):

   -72.9529 -72.9353 -39.1631 -39.1338 -39.1057 -39.0567 -38.8716 -38.8694
     5.2171   9.9552  10.6759  10.8853  11.1486  11.4505  11.9933  12.4207
    12.8441  12.8743  14.0542  14.8631  15.2983  15.4408  15.5931

          k = 0.3333 0.0000 0.1443 (  3261 PWs)   bands (ev):

   -72.9529 -72.9353 -39.1634 -39.1336 -39.1054 -39.0569 -38.8715 -38.8693
     5.5428   9.3528  10.7441  10.8458  11.1941  11.5544  11.8731  12.4698
    12.7642  13.1709  13.5441  14.0624  14.6281  15.4519  16.9997

          k = 0.3333 0.0000-0.2887 (  3260 PWs)   bands (ev):

   -72.9529 -72.9353 -39.1634 -39.1338 -39.1054 -39.0568 -38.8714 -38.8692
     6.0043   8.5690  10.6592  10.9498  11.2176  11.5729  12.3637  12.3690
    12.4968  13.2810  13.4574  13.7292  14.1106  15.7224  17.9906

          k = 0.3333 0.1516 0.0000 (  3282 PWs)   bands (ev):

   -72.9504 -72.9379 -39.1848 -39.1410 -39.0930 -39.0412 -38.8710 -38.8701
     5.6864   8.9981  10.5596  10.8845  11.3427  11.7128  11.9767  12.0471
    12.8363  13.1107  14.0162  14.2646  15.3544  15.7142  15.8833

          k = 0.3333 0.1516 0.1443 (  3257 PWs)   bands (ev):

   -72.9503 -72.9379 -39.1845 -39.1408 -39.0929 -39.0410 -38.8709 -38.8698
     6.0017   9.1041  10.0215  10.9085  11.2554  11.6410  12.0201  12.2530
    12.9964  13.0883  13.5702  13.9950  14.1539  15.2863  17.3241

          k = 0.3333 0.1516-0.2887 (  3250 PWs)   bands (ev):

   -72.9503 -72.9379 -39.1843 -39.1406 -39.0928 -39.0411 -38.8709 -38.8698
     6.4431   8.8328   9.7658  11.1143  11.2671  11.4530  12.1981  12.3220
    12.3734  12.9653  13.5133  13.7541  14.0482  15.9286  16.2718

          k = 0.3333-0.3032 0.0000 (  3252 PWs)   bands (ev):

   -72.9441 -72.9441 -39.1795 -39.1795 -39.0501 -39.0501 -38.8701 -38.8701
     7.0389   7.0389  11.0741  11.0741  11.4052  11.4052  12.1139  12.1139
    12.9387  12.9387  13.7582  13.7582  15.7988  15.7988  16.6988

          k = 0.3333-0.3032 0.1443 (  3262 PWs)   bands (ev):

   -72.9441 -72.9441 -39.1795 -39.1795 -39.0502 -39.0502 -38.8702 -38.8702
     7.3189   7.3189  10.5568  10.5568  11.6445  11.6445  12.1722  12.1722
    12.9357  12.9357  13.5842  13.5842  14.5119  14.5119  17.1666

          k = 0.3333-0.3032-0.2887 (  3264 PWs)   bands (ev):

   -72.9441 -72.9441 -39.1794 -39.1794 -39.0502 -39.0502 -38.8705 -38.8705
     7.6868   7.6868  10.1363  10.1363  11.6341  11.6341  12.3017  12.3017
    12.4558  12.4558  13.6165  13.6165  14.3389  14.3389  17.1451

          k =-0.5000 0.0000 0.0000 (  3256 PWs)   bands (ev):

   -72.9393 -72.9393 -39.1641 -39.1641 -39.1058 -39.1058 -38.8655 -38.8655
     7.9800   7.9800  10.4640  10.4640  11.2400  11.2400  12.7643  12.7643
    12.9437  12.9437  14.7530  14.7530  16.6504  16.6505  16.8898

          k =-0.5000 0.0000 0.1443 (  3248 PWs)   bands (ev):

   -72.9393 -72.9393 -39.1641 -39.1641 -39.1057 -39.1057 -38.8654 -38.8654
     8.2012   8.2012  10.5133  10.5133  11.1879  11.1879  12.6789  12.6789
    12.9938  12.9938  14.0132  14.0132  15.6970  15.6970  17.0234

          k =-0.5000 0.0000-0.2887 (  3196 PWs)   bands (ev):

   -72.9393 -72.9393 -39.1638 -39.1638 -39.1051 -39.1051 -38.8648 -38.8648
     8.4506   8.4506  10.7203  10.7203  11.1390  11.1390  12.1265  12.1265
    13.0405  13.0405  13.4939  13.4939  15.6690  15.6690  17.1739

          k =-0.5000 0.1516 0.0000 (  3244 PWs)   bands (ev):

   -72.9393 -72.9393 -39.1941 -39.1941 -39.0742 -39.0742 -38.8666 -38.8666
     8.3069   8.3069  10.6492  10.6492  11.2131  11.2131  12.1773  12.1773
    12.6742  12.6742  14.6910  14.6910  15.3233  15.3233  17.3281

          k =-0.5000 0.1516 0.1443 (  3254 PWs)   bands (ev):

   -72.9393 -72.9393 -39.1943 -39.1943 -39.0744 -39.0744 -38.8666 -38.8666
     8.5600   8.5600  10.3458  10.3458  11.5901  11.5901  12.0641  12.0641
    13.0058  13.0058  13.8159  13.8159  14.9835  14.9835  16.9555

          k =-0.5000 0.1516-0.2887 (  3244 PWs)   bands (ev):

   -72.9393 -72.9393 -39.1942 -39.1942 -39.0744 -39.0744 -38.8664 -38.8664
     8.8352   8.8352  10.3521  10.3521  11.6860  11.6860  11.9257  11.9257
    12.7474  12.7474  13.4783  13.4783  15.3206  15.3206  16.2047

          k =-0.5000-0.3032 0.0000 (  3248 PWs)   bands (ev):

   -72.9393 -72.9393 -39.2135 -39.2135 -39.0537 -39.0537 -38.8677 -38.8677
     8.8048   8.8048  10.7031  10.7031  11.0119  11.0119  11.5509  11.5509
    12.8693  12.8693  14.0257  14.0257  15.0911  15.0911  18.0102

          k =-0.5000-0.3032 0.1443 (  3248 PWs)   bands (ev):

   -72.9393 -72.9393 -39.2135 -39.2135 -39.0538 -39.0538 -38.8676 -38.8676
     9.2179   9.2179   9.9366   9.9366  11.4205  11.4205  12.1506  12.1506
    12.9621  12.9621  13.4049  13.4049  14.6257  14.6257  17.4170

          k =-0.5000-0.3032-0.2887 (  3264 PWs)   bands (ev):

   -72.9393 -72.9393 -39.2136 -39.2136 -39.0539 -39.0539 -38.8679 -38.8679
     9.6235   9.6235   9.9806   9.9806  10.9026  10.9026  12.5845  12.5845
    12.6865  12.6865  13.6736  13.6736  14.5054  14.5054  15.8271

     the Fermi energy is    13.7201 ev

!    total energy              =    -737.54374600 Ry
     total all-electron energy =     -6062.422381 Ry
     estimated scf accuracy    <          4.2E-10 Ry
     smearing contrib. (-TS)   =      -0.00029884 Ry
     internal energy E=F+TS    =    -737.54344716 Ry

     The total energy is F=E-TS. E is the sum of the following terms:
     one-electron contribution =    -360.08292017 Ry
     hartree contribution      =     200.44260490 Ry
     xc contribution           =     -75.74282388 Ry
     ewald contribution        =    -281.34118076 Ry
     one-center paw contrib.   =    -220.81912724 Ry

     convergence has been achieved in  10 iterations

     Forces acting on atoms (cartesian axes, Ry/au):

     atom    1 type  1   force =     0.00000000    0.00000000   -0.00917039
     atom    2 type  1   force =     0.00000000    0.00000000    0.00917039
     atom    3 type  2   force =     0.00000000    0.00000000   -0.02179427
     atom    4 type  2   force =     0.00000000    0.00000000    0.02179427

     Total force =     0.033439     Total SCF correction =     0.000032


     Computing stress (Cartesian axis) and pressure

          total   stress  (Ry/bohr**3)                   (kbar)     P=      -15.39
   0.00078117   0.00000000   0.00000000          114.91        0.00        0.00
   0.00000000  -0.00014450   0.00000000            0.00      -21.26        0.00
   0.00000000   0.00000000  -0.00095055            0.00        0.00     -139.83


     Writing all to output data dir ./FeAl.save/ :
     XML data file, charge density, pseudopotentials, collected wavefunctions

     init_run     :      3.84s CPU      3.94s WALL (       1 calls)
     electrons    :     77.72s CPU     80.55s WALL (       1 calls)
     forces       :      1.41s CPU      1.54s WALL (       1 calls)
     stress       :      5.57s CPU      6.00s WALL (       1 calls)

     Called by init_run:
     wfcinit      :      2.23s CPU      2.20s WALL (       1 calls)
     potinit      :      0.55s CPU      0.57s WALL (       1 calls)
     hinit0       :      0.76s CPU      0.74s WALL (       1 calls)

     Called by electrons:
     c_bands      :     62.86s CPU     62.26s WALL (      11 calls)
     sum_band     :      8.49s CPU     10.91s WALL (      11 calls)
     v_of_rho     :      0.69s CPU      0.68s WALL (      11 calls)
     newd         :      2.96s CPU      4.21s WALL (      11 calls)
     PAW_pot      :      3.21s CPU      3.13s WALL (      11 calls)
     mix_rho      :      0.07s CPU      0.07s WALL (      11 calls)

     Called by c_bands:
     init_us_2    :      0.75s CPU      0.73s WALL (     900 calls)
     cegterg      :     61.25s CPU     60.69s WALL (     396 calls)

     Called by *egterg:
     cdiaghg      :      1.13s CPU      1.11s WALL (    2060 calls)
     h_psi        :     30.99s CPU     31.26s WALL (    2132 calls)
     s_psi        :      6.57s CPU      6.39s WALL (    2132 calls)
     g_psi        :      0.18s CPU      0.17s WALL (    1700 calls)

     Called by h_psi:
     h_psi:calbec :      6.73s CPU      7.55s WALL (    2132 calls)
     vloc_psi     :     17.41s CPU     17.04s WALL (    2132 calls)
                                        0.00s GPU  (    2132 calls)
     add_vuspsi   :      6.69s CPU      6.51s WALL (    2132 calls)

     General routines
     calbec       :     11.88s CPU     13.59s WALL (    3140 calls)
     fft          :      0.65s CPU      0.63s WALL (     167 calls)
     ffts         :      0.18s CPU      0.17s WALL (      22 calls)
     fftw         :     16.91s CPU     16.56s WALL (   69026 calls)
     interpolate  :      0.19s CPU      0.19s WALL (      11 calls)

     Parallel routines

     PWSCF        :   1m28.68s CPU   1m32.24s WALL


   This run was terminated on:   5:15:56  10Jul2026            

=------------------------------------------------------------------------------=
   JOB DONE.
=------------------------------------------------------------------------------=
