
     Program PWSCF v.7.5 starts on 16Jul2026 at 21:12:16 

     This program is part of the open-source Quantum ESPRESSO suite
     for quantum simulation of materials; please cite
         "P. Giannozzi et al., J. Phys.:Condens. Matter 21 395502 (2009);
         "P. Giannozzi et al., J. Phys.:Condens. Matter 29 465901 (2017);
         "P. Giannozzi et al., J. Chem. Phys. 152 154105 (2020);
          URL http://www.quantum-espresso.org", 
     in publications or presentations arising from this work. More details at
     http://www.quantum-espresso.org/quote

     Parallel version (MPI), running on     1 processors

     MPI processes distributed on     1 nodes
     11701 MiB available memory on the printing compute node when the environment starts

     Reading input from qe.in
Warning: card &FCP ignored
Warning: card &RISM ignored

     Current dimensions of program PWSCF are:
     Max number of different atomic species (ntypx) = 10
     Max number of k-points (npk) =  40000
     Max angular momentum in pseudopotentials (lmaxx) =  4
     file Pb.pbe-dn-kjpaw_psl.0.2.2.UPF: wavefunction(s)  6S renormalized
     file O.pbe-n-kjpaw_psl.0.1.UPF: wavefunction(s)  2P renormalized
     Message from routine setup:
     using ibrav=0 with symmetry is DISCOURAGED, use correct ibrav instead

     Subspace diagonalization in iterative solution of the eigenvalue problem:
     a serial algorithm will be used


     G-vector sticks info
     --------------------
     sticks:   dense  smooth     PW     G-vecs:    dense   smooth      PW
     Sum        1085    1085    305                33643    33643    5121

     Using Slab Decomposition



     bravais-lattice index     =            0
     lattice parameter (alat)  =       7.5105  a.u.
     unit-cell volume          =     535.3237 (a.u.)^3
     number of atoms/cell      =            4
     number of atomic types    =            2
     number of electrons       =        40.00
     number of Kohn-Sham states=           24
     kinetic-energy cutoff     =      60.0000  Ry
     charge density cutoff     =     240.0000  Ry
     scf convergence threshold =      1.0E-08
     mixing beta               =       0.7000
     number of iterations used =            8  plain     mixing
     energy convergence thresh.=      1.0E-04
     force convergence thresh. =      1.0E-03
     press convergence thresh. =      5.0E-01
     Exchange-correlation= SLA  PW   PBX  PBC
                           (   1   4   3   4   0   0   0)
     nstep                     =           50


     celldm(1)=   7.510528  celldm(2)=   0.000000  celldm(3)=   0.000000
     celldm(4)=   0.000000  celldm(5)=   0.000000  celldm(6)=   0.000000

     crystal axes: (cart. coord. in units of alat)
               a(1) = (   1.000000   0.000000   0.000000 )  
               a(2) = (   0.000000   1.000000   0.000000 )  
               a(3) = (   0.000000   0.000000   1.263587 )  

     reciprocal axes: (cart. coord. in units 2 pi/alat)
               b(1) = (  1.000000  0.000000  0.000000 )  
               b(2) = (  0.000000  1.000000  0.000000 )  
               b(3) = (  0.000000  0.000000  0.791398 )  


     PseudoPot. # 1 for Pb read from file:
     /home/yluo/ASE/05a_geo_opt/src/Pb.pbe-dn-kjpaw_psl.0.2.2.UPF
     MD5 check sum: 9d431e6316058b74ade52399a6cf67da
     Pseudo is Projector augmented-wave + core cor, Zval = 14.0
     Generated using "atomic" code by A. Dal Corso  v.5.0.99 svn rev. 10869
     Shape of augmentation charge: PSQ
     Using radial grid of 1281 points,  6 beta functions with: 
                l(1) =   0
                l(2) =   0
                l(3) =   1
                l(4) =   1
                l(5) =   2
                l(6) =   2
     Q(r) pseudized with 0 coefficients 


     PseudoPot. # 2 for O  read from file:
     /home/yluo/ASE/05a_geo_opt/src/O.pbe-n-kjpaw_psl.0.1.UPF
     MD5 check sum: 0234752ac141de4415c5fc33072bef88
     Pseudo is Projector augmented-wave + core cor, Zval =  6.0
     Generated using "atomic" code by A. Dal Corso  v.5.0.99 svn rev. 10869
     Shape of augmentation charge: BESSEL
     Using radial grid of 1095 points,  4 beta functions with: 
                l(1) =   0
                l(2) =   0
                l(3) =   1
                l(4) =   1
     Q(r) pseudized with 0 coefficients 


     atomic species   valence    mass     pseudopotential
     Pb               14.00   207.20000     Pb( 1.00)
     O                 6.00    15.99900     O ( 1.00)

     16 Sym. Ops., with inversion, found ( 8 have fractional translation)



   Cartesian axes

     site n.     atom                  positions (alat units)
         1        Pb     tau(   1) = (   0.0000000   0.5000000   0.3052211  )
         2        Pb     tau(   2) = (   0.5000000   0.0000000   0.9583659  )
         3        O      tau(   3) = (   0.0000000   0.0000000   0.0000000  )
         4        O      tau(   4) = (   0.5000000   0.5000000   0.0000000  )

     number of k points=    18  Marzari-Vanderbilt smearing, width (Ry)=  0.0050
                       cart. coord. in units 2pi/alat
        k(    1) = (   0.0000000   0.0000000   0.0000000), wk =   0.0160000
        k(    2) = (   0.0000000   0.0000000   0.1582796), wk =   0.0320000
        k(    3) = (   0.0000000   0.0000000   0.3165591), wk =   0.0320000
        k(    4) = (   0.0000000   0.2000000   0.0000000), wk =   0.0640000
        k(    5) = (   0.0000000   0.2000000   0.1582796), wk =   0.1280000
        k(    6) = (   0.0000000   0.2000000   0.3165591), wk =   0.1280000
        k(    7) = (   0.0000000   0.4000000   0.0000000), wk =   0.0640000
        k(    8) = (   0.0000000   0.4000000   0.1582796), wk =   0.1280000
        k(    9) = (   0.0000000   0.4000000   0.3165591), wk =   0.1280000
        k(   10) = (   0.2000000   0.2000000   0.0000000), wk =   0.0640000
        k(   11) = (   0.2000000   0.2000000   0.1582796), wk =   0.1280000
        k(   12) = (   0.2000000   0.2000000   0.3165591), wk =   0.1280000
        k(   13) = (   0.2000000   0.4000000   0.0000000), wk =   0.1280000
        k(   14) = (   0.2000000   0.4000000   0.1582796), wk =   0.2560000
        k(   15) = (   0.2000000   0.4000000   0.3165591), wk =   0.2560000
        k(   16) = (   0.4000000   0.4000000   0.0000000), wk =   0.0640000
        k(   17) = (   0.4000000   0.4000000   0.1582796), wk =   0.1280000
        k(   18) = (   0.4000000   0.4000000   0.3165591), wk =   0.1280000

     Dense  grid:    33643 G-vectors     FFT dimensions: (  40,  40,  48)

     Estimated max dynamical RAM per process >     161.01 MB

     Check: negative core charge=   -0.000006

     Initial potential from superposition of free atoms

     starting charge      39.9953, renormalised to      40.0000
     Starting wfcs are   26 randomized atomic wfcs
     Checking if some PAW data can be deallocated... 

     total cpu time spent up to now is        3.7 secs

     Self-consistent Calculation

     iteration #  1     ecut=    60.00 Ry     beta= 0.70
     Davidson diagonalization with overlap
     ethr =  1.00E-02,  avg # of iterations =  2.2

     total cpu time spent up to now is        8.9 secs

     total energy              =   -1823.55792553 Ry
     estimated scf accuracy    <       1.47953390 Ry

     iteration #  2     ecut=    60.00 Ry     beta= 0.70
     Davidson diagonalization with overlap
     ethr =  3.70E-03,  avg # of iterations =  5.1

     total cpu time spent up to now is       15.3 secs

     total energy              =   -1822.76435496 Ry
     estimated scf accuracy    <       9.67812271 Ry

     iteration #  3     ecut=    60.00 Ry     beta= 0.70
     Davidson diagonalization with overlap
     ethr =  3.70E-03,  avg # of iterations =  3.4

     total cpu time spent up to now is       21.0 secs

     total energy              =   -1824.46129259 Ry
     estimated scf accuracy    <       0.10167665 Ry

     iteration #  4     ecut=    60.00 Ry     beta= 0.70
     Davidson diagonalization with overlap
     ethr =  2.54E-04,  avg # of iterations =  4.0

     total cpu time spent up to now is       26.1 secs

     total energy              =   -1824.45344570 Ry
     estimated scf accuracy    <       0.04306065 Ry

     iteration #  5     ecut=    60.00 Ry     beta= 0.70
     Davidson diagonalization with overlap
     ethr =  1.08E-04,  avg # of iterations =  3.2

     total cpu time spent up to now is       31.5 secs

     total energy              =   -1824.46627091 Ry
     estimated scf accuracy    <       0.00558871 Ry

     iteration #  6     ecut=    60.00 Ry     beta= 0.70
     Davidson diagonalization with overlap
     ethr =  1.40E-05,  avg # of iterations =  6.1

     total cpu time spent up to now is       38.7 secs

     total energy              =   -1824.46928564 Ry
     estimated scf accuracy    <       0.00061864 Ry

     iteration #  7     ecut=    60.00 Ry     beta= 0.70
     Davidson diagonalization with overlap
     ethr =  1.55E-06,  avg # of iterations =  5.7

     total cpu time spent up to now is       45.1 secs

     total energy              =   -1824.46952305 Ry
     estimated scf accuracy    <       0.00001230 Ry

     iteration #  8     ecut=    60.00 Ry     beta= 0.70
     Davidson diagonalization with overlap
     ethr =  3.08E-08,  avg # of iterations =  8.1

     total cpu time spent up to now is       53.7 secs

     total energy              =   -1824.46954866 Ry
     estimated scf accuracy    <       0.00000086 Ry

     iteration #  9     ecut=    60.00 Ry     beta= 0.70
     Davidson diagonalization with overlap
     ethr =  2.16E-09,  avg # of iterations =  5.7

     total cpu time spent up to now is       60.8 secs

     total energy              =   -1824.46954904 Ry
     estimated scf accuracy    <       0.00000033 Ry

     iteration # 10     ecut=    60.00 Ry     beta= 0.70
     Davidson diagonalization with overlap
     ethr =  8.25E-10,  avg # of iterations =  2.8

     total cpu time spent up to now is       65.9 secs

     End of self-consistent calculation

          k = 0.0000 0.0000 0.0000 (  4219 PWs)   bands (ev):

    -9.4931  -8.9684  -7.2565  -7.2565  -7.1989  -7.1877  -7.1123  -7.0418
    -7.0341  -7.0341  -7.0167  -5.6950   1.6044   1.9783   4.6304   4.6304
     7.1338   7.2626   7.2626   8.8057  11.2233  14.3131  14.3131  14.4198

          k = 0.0000 0.0000 0.1583 (  4207 PWs)   bands (ev):

    -9.4842  -8.9621  -7.2403  -7.2403  -7.2005  -7.1832  -7.1039  -7.0534
    -7.0534  -7.0483  -7.0251  -5.6894   0.7355   3.0979   4.6863   4.6863
     7.1195   7.2531   7.2531   8.5643  10.9893  13.4991  13.4991  14.0632

          k = 0.0000 0.0000 0.3166 (  4200 PWs)   bands (ev):

    -9.4698  -8.9519  -7.2212  -7.2029  -7.2029  -7.1518  -7.0958  -7.0958
    -7.0836  -7.0645  -7.0455  -5.6807   0.1632   4.2125   4.7810   4.7810
     7.0968   7.2350   7.2350   7.9413  10.8791  12.8053  12.8053  13.2196

          k = 0.0000 0.2000 0.0000 (  4183 PWs)   bands (ev):

    -9.4147  -8.9982  -7.2378  -7.2370  -7.1705  -7.1651  -7.1200  -7.0555
    -7.0475  -7.0337  -6.9260  -5.7972   1.4745   2.0016   4.7655   4.8687
     6.5152   6.9937   7.0448   8.7079  12.1119  12.6288  14.4819  14.5279

          k = 0.0000 0.2000 0.1583 (  4194 PWs)   bands (ev):

    -9.4105  -8.9950  -7.2321  -7.2226  -7.1728  -7.1585  -7.1181  -7.0708
    -7.0633  -7.0190  -6.9328  -5.7920   0.8533   2.7186   4.7707   4.9151
     6.5725   6.9860   7.0938   8.5387  11.8758  12.0472  13.8232  15.0483

          k = 0.0000 0.2000 0.3166 (  4191 PWs)   bands (ev):

    -9.4039  -8.9897  -7.2153  -7.1961  -7.1848  -7.1489  -7.1295  -7.0879
    -7.0532  -7.0259  -6.9433  -5.7839   0.3693   3.4358   4.6521   4.9934
     6.6775   6.9714   7.4176   8.0607  11.2986  11.7028  13.2013  14.9950

          k = 0.0000 0.4000 0.0000 (  4200 PWs)   bands (ev):

    -9.2484  -9.0950  -7.1921  -7.1891  -7.1527  -7.1425  -7.1003  -7.0718
    -7.0649  -7.0554  -6.6099  -6.1400   1.4405   1.7818   5.2793   5.5019
     5.9957   6.3108   6.7460   7.7179  12.0337  12.3712  14.9150  15.0939

          k = 0.0000 0.4000 0.1583 (  4212 PWs)   bands (ev):

    -9.2516  -9.0977  -7.2086  -7.1836  -7.1668  -7.1534  -7.0895  -7.0597
    -7.0524  -7.0332  -6.6069  -6.1345   1.2231   1.9375   5.0687   5.5259
     5.9056   6.3134   7.0527   7.8296  11.7954  12.3432  14.7111  15.0629

          k = 0.0000 0.4000 0.3166 (  4218 PWs)   bands (ev):

    -9.2568  -9.1021  -7.2256  -7.2033  -7.1703  -7.1544  -7.0675  -7.0523
    -7.0258  -7.0136  -6.6012  -6.1257   0.9889   2.0798   4.8144   5.5660
     5.7514   6.3170   7.5987   7.8858  11.4381  12.2662  14.3168  15.6683

          k = 0.2000 0.2000 0.0000 (  4205 PWs)   bands (ev):

    -9.3521  -9.0228  -7.2415  -7.1900  -7.1489  -7.1472  -7.1273  -7.0565
    -7.0455  -7.0241  -6.8537  -5.8683   1.2771   1.9108   4.6293   5.4847
     6.1162   6.3892   7.5658   8.5352  12.3426  12.4193  13.4450  13.8446

          k = 0.2000 0.2000 0.1583 (  4205 PWs)   bands (ev):

    -9.3508  -9.0208  -7.2263  -7.1997  -7.1540  -7.1446  -7.1102  -7.0710
    -7.0446  -7.0399  -6.8370  -5.8600   0.8757   2.3452   4.4618   5.5383
     6.3115   6.4824   7.5678   8.3346  12.0824  12.4034  12.4875  14.9375

          k = 0.2000 0.2000 0.3166 (  4204 PWs)   bands (ev):

    -9.3488  -9.0176  -7.2123  -7.1911  -7.1624  -7.1280  -7.1041  -7.0881
    -7.0822  -7.0360  -6.8107  -5.8469   0.4992   2.8420   4.1747   5.6532
     6.1594   7.1694   7.5711   7.9197  11.2691  12.2820  12.4859  15.6786

          k = 0.2000 0.4000 0.0000 (  4213 PWs)   bands (ev):

    -9.2221  -9.1016  -7.1894  -7.1574  -7.1450  -7.1397  -7.0844  -7.0540
    -7.0456  -7.0379  -6.5590  -6.1411   1.1331   1.4859   5.0251   5.7390
     6.2308   6.2819   7.3944   7.6984  11.5454  11.8389  13.9917  14.3931

          k = 0.2000 0.4000 0.1583 (  4203 PWs)   bands (ev):

    -9.2246  -9.1028  -7.1913  -7.1768  -7.1385  -7.1297  -7.0886  -7.0715
    -7.0362  -7.0320  -6.5351  -6.1246   1.0259   1.5902   4.6756   5.5142
     6.3904   6.6718   7.3908   7.6751  11.5980  11.9109  13.5783  14.5799

          k = 0.2000 0.4000 0.3166 (  4207 PWs)   bands (ev):

    -9.2286  -9.1048  -7.2064  -7.1854  -7.1410  -7.1265  -7.0788  -7.0624
    -7.0471  -7.0339  -6.4970  -6.0987   0.8938   1.7228   4.3130   5.2580
     6.4845   7.1401   7.3887   7.6196  11.6138  12.3734  13.1470  14.4944

          k = 0.4000 0.4000 0.0000 (  4199 PWs)   bands (ev):

    -9.1734  -9.1296  -7.1715  -7.1708  -7.1145  -7.0829  -7.0399  -7.0324
    -7.0259  -7.0083  -6.3991  -6.2121   0.7225   0.8932   5.2231   5.5590
     6.6337   7.3493   7.3713   7.8294  10.3573  10.5310  13.8808  14.1940

          k = 0.4000 0.4000 0.1583 (  4206 PWs)   bands (ev):

    -9.1740  -9.1292  -7.1665  -7.1601  -7.1144  -7.0835  -7.0623  -7.0454
    -7.0366  -7.0334  -6.3529  -6.1751   0.7225   0.9411   4.9047   5.3805
     6.7582   7.1874   7.4044   7.8288  10.8249  10.8366  13.8272  14.3713

          k = 0.4000 0.4000 0.3166 (  4186 PWs)   bands (ev):

    -9.1749  -9.1286  -7.1695  -7.1383  -7.1152  -7.0867  -7.0802  -7.0746
    -7.0621  -7.0539  -6.2855  -6.1197   0.7270   1.0175   4.5291   5.1363
     6.6725   7.0136   7.4628   7.8281  11.8366  11.8954  13.1465  14.3044

     the Fermi energy is     9.7258 ev

!    total energy              =   -1824.46954912 Ry
     total all-electron energy =    -83829.220265 Ry
     estimated scf accuracy    <          5.9E-09 Ry
     smearing contrib. (-TS)   =      -0.00000000 Ry
     internal energy E=F+TS    =   -1824.46954912 Ry

     The total energy is F=E-TS. E is the sum of the following terms:
     one-electron contribution =    -100.42365947 Ry
     hartree contribution      =      83.36764973 Ry
     xc contribution           =    -103.68774552 Ry
     ewald contribution        =    -227.77260770 Ry
     one-center paw contrib.   =   -1475.95318616 Ry

     convergence has been achieved in  10 iterations

     Forces acting on atoms (cartesian axes, Ry/au):

     atom    1 type  1   force =     0.00000000    0.00000000   -0.00003640
     atom    2 type  1   force =     0.00000000    0.00000000    0.00003640
     atom    3 type  2   force =     0.00000000    0.00000000    0.00000000
     atom    4 type  2   force =     0.00000000    0.00000000    0.00000000

     Total force =     0.000051     Total SCF correction =     0.000314
     SCF correction compared to forces is large: reduce conv_thr to get better values


     Computing stress (Cartesian axis) and pressure

          total   stress  (Ry/bohr**3)                   (kbar)     P=       34.47
   0.00027720   0.00000000   0.00000000           40.78        0.00        0.00
   0.00000000   0.00027720   0.00000000            0.00       40.78        0.00
   0.00000000   0.00000000   0.00014866            0.00        0.00       21.87


     BFGS Geometry Optimization
     Energy error            =      2.3E-03 Ry
     Gradient error          =      3.6E-05 Ry/Bohr
     Cell gradient error     =      4.1E+01 kbar

     number of scf cycles    =   1
     number of bfgs steps    =   0

     enthalpy           new  =   -1824.4695491237 Ry

     new trust radius        =       0.0320683086 bohr
     new conv_thr            =       0.0000000100 Ry

     new unit-cell volume =    544.78622 a.u.^3 (    80.72899 Ang^3 )
     density =      9.18210 g/cm^3

CELL_PARAMETERS (alat=  7.51052751)
   1.006930073   0.000000000   0.000000000
   0.000000000   1.006930073   0.000000000
   0.000000000   0.000000000   1.268282991

ATOMIC_POSITIONS (crystal)
Pb               0.0000000000        0.5000000000        0.2415474516
Pb               0.5000000000        0.0000000000        0.7584525484
O                0.0000000000        0.0000000000        0.0000000000
O                0.5000000000        0.5000000000        0.0000000000



     Writing config-only to output data dir ./FeAl.save/ :
     XML data file
     NEW-OLD atomic charge density approx. for the potential
     New effective cutoffs (rho, wfc):  237.14   59.54

     Check: negative core charge=   -0.000006

     total cpu time spent up to now is       72.0 secs

     Self-consistent Calculation

     iteration #  1     ecut=    60.00 Ry     beta= 0.70
     Davidson diagonalization with overlap
     ethr =  1.00E-06,  avg # of iterations =  6.7

     total cpu time spent up to now is       82.6 secs

     total energy              =   -1824.46932592 Ry
     estimated scf accuracy    <       0.00312479 Ry

     iteration #  2     ecut=    60.00 Ry     beta= 0.70
     Davidson diagonalization with overlap
     ethr =  7.81E-06,  avg # of iterations =  5.0

     total cpu time spent up to now is       91.2 secs

     total energy              =   -1824.47027473 Ry
     estimated scf accuracy    <       0.00477873 Ry

     iteration #  3     ecut=    60.00 Ry     beta= 0.70
     Davidson diagonalization with overlap
     ethr =  7.81E-06,  avg # of iterations =  2.5

     total cpu time spent up to now is       96.5 secs

     total energy              =   -1824.47118473 Ry
     estimated scf accuracy    <       0.00083898 Ry

     iteration #  4     ecut=    60.00 Ry     beta= 0.70
     Davidson diagonalization with overlap
     ethr =  2.10E-06,  avg # of iterations =  2.0

     total cpu time spent up to now is      101.4 secs

     total energy              =   -1824.47133172 Ry
     estimated scf accuracy    <       0.00032726 Ry

     iteration #  5     ecut=    60.00 Ry     beta= 0.70
     Davidson diagonalization with overlap
     ethr =  8.18E-07,  avg # of iterations =  2.2

     total cpu time spent up to now is      106.2 secs

     total energy              =   -1824.47136347 Ry
     estimated scf accuracy    <       0.00016579 Ry

     iteration #  6     ecut=    60.00 Ry     beta= 0.70
     Davidson diagonalization with overlap
     ethr =  4.14E-07,  avg # of iterations =  2.8

     total cpu time spent up to now is      111.0 secs

     total energy              =   -1824.47137952 Ry
     estimated scf accuracy    <       0.00004022 Ry

     iteration #  7     ecut=    60.00 Ry     beta= 0.70
     Davidson diagonalization with overlap
     ethr =  1.01E-07,  avg # of iterations =  4.8

     total cpu time spent up to now is      117.0 secs

     total energy              =   -1824.47139333 Ry
     estimated scf accuracy    <       0.00000072 Ry

     iteration #  8     ecut=    60.00 Ry     beta= 0.70
     Davidson diagonalization with overlap
     ethr =  1.81E-09,  avg # of iterations =  9.1

     total cpu time spent up to now is      128.7 secs

     total energy              =   -1824.47139582 Ry
     estimated scf accuracy    <       0.00000012 Ry

     iteration #  9     ecut=    60.00 Ry     beta= 0.70
     Davidson diagonalization with overlap
     ethr =  2.91E-10,  avg # of iterations =  5.6

     total cpu time spent up to now is      136.4 secs

     total energy              =   -1824.47139589 Ry
     estimated scf accuracy    <       0.00000036 Ry

     iteration # 10     ecut=    60.00 Ry     beta= 0.70
     Davidson diagonalization with overlap
     ethr =  2.91E-10,  avg # of iterations =  2.1

     total cpu time spent up to now is      141.5 secs

     total energy              =   -1824.47139591 Ry
     estimated scf accuracy    <       0.00000002 Ry

     iteration # 11     ecut=    60.00 Ry     beta= 0.70
     Davidson diagonalization with overlap
     ethr =  4.47E-11,  avg # of iterations =  4.8

     total cpu time spent up to now is      147.4 secs

     End of self-consistent calculation

          k = 0.0000 0.0000 0.0000 (  4219 PWs)   bands (ev):

    -9.5933  -9.1221  -7.4940  -7.4940  -7.4415  -7.4255  -7.3602  -7.2932
    -7.2856  -7.2856  -7.2690  -5.9690   1.4171   1.7448   4.4802   4.4802
     6.9380   7.0630   7.0630   8.5168  10.9063  13.9914  13.9914  14.1214

          k = 0.0000 0.0000 0.1577 (  4207 PWs)   bands (ev):

    -9.5849  -9.1160  -7.4786  -7.4786  -7.4376  -7.4266  -7.3521  -7.3038
    -7.3038  -7.2993  -7.2771  -5.9639   0.5592   2.8378   4.5350   4.5350
     6.9232   7.0537   7.0537   8.2956  10.6847  13.1986  13.1986  13.7378

          k = 0.0000 0.0000 0.3154 (  4200 PWs)   bands (ev):

    -9.5712  -9.1060  -7.4571  -7.4430  -7.4430  -7.3972  -7.3441  -7.3441
    -7.3327  -7.3142  -7.2966  -5.9559   0.0016   3.8940   4.6278   4.6278
     6.8997   7.0359   7.0359   7.7284  10.5794  12.5178  12.5178  12.8947

          k = 0.0000 0.1986 0.0000 (  4183 PWs)   bands (ev):

    -9.5212  -9.1482  -7.4760  -7.4756  -7.4153  -7.4045  -7.3668  -7.3076
    -7.2985  -7.2851  -7.1767  -6.0697   1.2873   1.7611   4.6157   4.7138
     6.3368   6.7992   6.8538   8.4284  11.7862  12.3431  14.1656  14.2008

          k = 0.0000 0.1986 0.1577 (  4194 PWs)   bands (ev):

    -9.5174  -9.1450  -7.4711  -7.4614  -7.4119  -7.4040  -7.3646  -7.3208
    -7.3149  -7.2713  -7.1831  -6.0650   0.6720   2.4691   4.6144   4.7593
     6.3920   6.7918   6.9028   8.2720  11.5628  11.7653  13.5147  14.7190

          k = 0.0000 0.1986 0.3154 (  4191 PWs)   bands (ev):

    -9.5114  -9.1398  -7.4551  -7.4353  -7.4240  -7.3939  -7.3767  -7.3379
    -7.3039  -7.2779  -7.1930  -6.0574   0.2011   3.1595   4.4981   4.8363
     6.4877   6.7775   7.2141   7.8297  11.0294  11.3931  12.9048  14.6546

          k = 0.0000 0.3972 0.0000 (  4200 PWs)   bands (ev):

    -9.3706  -9.2338  -7.4325  -7.4305  -7.3946  -7.3869  -7.3497  -7.3216
    -7.3147  -7.3073  -6.8633  -6.4041   1.2407   1.5514   5.1249   5.3348
     5.8308   6.1288   6.5599   7.4893  11.7398  12.0636  14.5679  14.7519

          k = 0.0000 0.3972 0.1577 (  4212 PWs)   bands (ev):

    -9.3740  -9.2365  -7.4492  -7.4245  -7.4100  -7.3955  -7.3393  -7.3099
    -7.3045  -7.2846  -6.8603  -6.3989   1.0264   1.7107   4.9149   5.3587
     5.7379   6.1317   6.8572   7.5989  11.5075  12.0367  14.3798  14.7236

          k = 0.0000 0.3972 0.3154 (  4218 PWs)   bands (ev):

    -9.3793  -9.2407  -7.4654  -7.4448  -7.4121  -7.3966  -7.3184  -7.3041
    -7.2776  -7.2661  -6.8547  -6.3905   0.8010   1.8541   4.6622   5.3986
     5.5814   6.1358   7.3798   7.6565  11.1625  11.9604  13.9943  15.3228

          k = 0.1986 0.1986 0.0000 (  4205 PWs)   bands (ev):

    -9.4642  -9.1700  -7.4798  -7.4310  -7.3936  -7.3899  -7.3733  -7.3088
    -7.2962  -7.2761  -7.1032  -6.1403   1.0947   1.6708   4.4841   5.3177
     5.9471   6.2129   7.3624   8.2621  12.0648  12.1042  13.1419  13.5121

          k = 0.1986 0.1986 0.1577 (  4205 PWs)   bands (ev):

    -9.4632  -9.1681  -7.4654  -7.4402  -7.3948  -7.3909  -7.3571  -7.3220
    -7.2955  -7.2913  -7.0876  -6.1325   0.6939   2.1070   4.3154   5.3702
     6.1354   6.3020   7.3644   8.0738  11.7910  12.1268  12.1712  14.6015

          k = 0.1986 0.1986 0.3154 (  4204 PWs)   bands (ev):

    -9.4617  -9.1649  -7.4520  -7.4313  -7.4036  -7.3747  -7.3521  -7.3364
    -7.3323  -7.2874  -7.0629  -6.1203   0.3268   2.5904   4.0352   5.4830
     5.9845   6.9540   7.3678   7.6914  10.9969  11.9640  12.2113  15.3310

          k = 0.1986 0.3972 0.0000 (  4213 PWs)   bands (ev):

    -9.3476  -9.2402  -7.4305  -7.4006  -7.3893  -7.3828  -7.3339  -7.3048
    -7.2977  -7.2895  -6.8126  -6.4061   0.9467   1.2705   4.8757   5.5767
     6.0499   6.0993   7.1930   7.4640  11.2665  11.5463  13.6802  14.0424

          k = 0.1986 0.3972 0.1577 (  4203 PWs)   bands (ev):

    -9.3501  -9.2414  -7.4326  -7.4187  -7.3824  -7.3738  -7.3386  -7.3213
    -7.2886  -7.2838  -6.7900  -6.3906   0.8390   1.3784   4.5316   5.3543
     6.2068   6.4770   7.1877   7.4423  11.3174  11.6232  13.2655  14.2449

          k = 0.1986 0.3972 0.3154 (  4207 PWs)   bands (ev):

    -9.3541  -9.2433  -7.4470  -7.4275  -7.3848  -7.3708  -7.3288  -7.3133
    -7.2982  -7.2855  -6.7541  -6.3662   0.7105   1.5119   4.1745   5.1012
     6.2989   6.9297   7.1745   7.3952  11.3360  12.0777  12.8512  14.1765

          k = 0.3972 0.3972 0.0000 (  4199 PWs)   bands (ev):

    -9.3052  -9.2663  -7.4140  -7.4133  -7.3597  -7.3295  -7.2927  -7.2861
    -7.2778  -7.2612  -6.6565  -6.4760   0.5520   0.7099   5.0747   5.4074
     6.4202   7.1312   7.1484   7.6216  10.1037  10.2628  13.5889  13.8865

          k = 0.3972 0.3972 0.1577 (  4206 PWs)   bands (ev):

    -9.3058  -9.2659  -7.4092  -7.4032  -7.3598  -7.3300  -7.3130  -7.2980
    -7.2877  -7.2863  -6.6131  -6.4413   0.5515   0.7593   4.7586   5.2303
     6.5374   6.9541   7.2030   7.6210  10.5673  10.5691  13.5225  14.0561

          k = 0.3972 0.3972 0.3154 (  4186 PWs)   bands (ev):

    -9.3066  -9.2652  -7.4121  -7.3824  -7.3616  -7.3332  -7.3296  -7.3225
    -7.3142  -7.3060  -6.5497  -6.3891   0.5562   0.8371   4.3873   4.9886
     6.4419   6.7890   7.2607   7.6204  11.5613  11.6306  12.8483  13.9845

     the Fermi energy is     9.4400 ev

!    total energy              =   -1824.47139591 Ry
     total all-electron energy =    -83829.222112 Ry
     estimated scf accuracy    <          4.0E-10 Ry
     smearing contrib. (-TS)   =      -0.00000000 Ry
     internal energy E=F+TS    =   -1824.47139591 Ry

     The total energy is F=E-TS. E is the sum of the following terms:
     one-electron contribution =    -102.30465472 Ry
     hartree contribution      =      83.96459730 Ry
     xc contribution           =    -103.64790911 Ry
     ewald contribution        =    -226.53208431 Ry
     one-center paw contrib.   =   -1475.95134508 Ry

     convergence has been achieved in  11 iterations

     Forces acting on atoms (cartesian axes, Ry/au):

     atom    1 type  1   force =     0.00000000    0.00000000   -0.00821562
     atom    2 type  1   force =     0.00000000    0.00000000    0.00821562
     atom    3 type  2   force =     0.00000000    0.00000000    0.00000000
     atom    4 type  2   force =     0.00000000    0.00000000    0.00000000

     Total force =     0.011619     Total SCF correction =     0.000008


     Computing stress (Cartesian axis) and pressure

          total   stress  (Ry/bohr**3)                   (kbar)     P=       19.03
   0.00016313   0.00000000   0.00000000           24.00        0.00        0.00
   0.00000000   0.00016313   0.00000000            0.00       24.00        0.00
   0.00000000   0.00000000   0.00006176            0.00        0.00        9.09

     Energy error            =      1.8E-03 Ry
     Gradient error          =      8.2E-03 Ry/Bohr
     Cell gradient error     =      2.4E+01 kbar

     number of scf cycles    =   2
     number of bfgs steps    =   1

     enthalpy           old  =   -1824.4695491237 Ry
     enthalpy           new  =   -1824.4713959112 Ry

     CASE: enthalpy          _new < enthalpy          _old

     new trust radius        =       0.0353406274 bohr
     new conv_thr            =       0.0000000008 Ry

     new unit-cell volume =    554.78864 a.u.^3 (    82.21119 Ang^3 )
     density =      9.01655 g/cm^3

CELL_PARAMETERS (alat=  7.51052751)
   1.014553154   0.000000000   0.000000000
   0.000000000   1.014553154   0.000000000
   0.000000000   0.000000000   1.272232916

ATOMIC_POSITIONS (crystal)
Pb               0.0000000000        0.5000000000        0.2402502291
Pb               0.5000000000        0.0000000000        0.7597497709
O                0.0000000000        0.0000000000        0.0000000000
O                0.5000000000        0.5000000000        0.0000000000



     Writing config-only to output data dir ./FeAl.save/ :
     XML data file
     NEW-OLD atomic charge density approx. for the potential
     New effective cutoffs (rho, wfc):  235.54   59.16

     Check: negative core charge=   -0.000007

     total cpu time spent up to now is      153.5 secs

     Self-consistent Calculation

     iteration #  1     ecut=    60.00 Ry     beta= 0.70
     Davidson diagonalization with overlap
     ethr =  1.00E-06,  avg # of iterations =  7.9

     total cpu time spent up to now is      166.3 secs

     total energy              =   -1824.47024032 Ry
     estimated scf accuracy    <       0.00357128 Ry

     iteration #  2     ecut=    60.00 Ry     beta= 0.70
     Davidson diagonalization with overlap
     ethr =  8.93E-06,  avg # of iterations =  4.9

     total cpu time spent up to now is      174.4 secs

     total energy              =   -1824.47142951 Ry
     estimated scf accuracy    <       0.00596349 Ry

     iteration #  3     ecut=    60.00 Ry     beta= 0.70
     Davidson diagonalization with overlap
     ethr =  8.93E-06,  avg # of iterations =  2.5

     total cpu time spent up to now is      179.3 secs

     total energy              =   -1824.47245219 Ry
     estimated scf accuracy    <       0.00109686 Ry

     iteration #  4     ecut=    60.00 Ry     beta= 0.70
     Davidson diagonalization with overlap
     ethr =  2.74E-06,  avg # of iterations =  1.8

     total cpu time spent up to now is      183.7 secs

     total energy              =   -1824.47259707 Ry
     estimated scf accuracy    <       0.00043930 Ry

     iteration #  5     ecut=    60.00 Ry     beta= 0.70
     Davidson diagonalization with overlap
     ethr =  1.10E-06,  avg # of iterations =  1.3

     total cpu time spent up to now is      188.0 secs

     total energy              =   -1824.47262940 Ry
     estimated scf accuracy    <       0.00022319 Ry

     iteration #  6     ecut=    60.00 Ry     beta= 0.70
     Davidson diagonalization with overlap
     ethr =  5.58E-07,  avg # of iterations =  1.7

     total cpu time spent up to now is      192.6 secs

     total energy              =   -1824.47264471 Ry
     estimated scf accuracy    <       0.00007674 Ry

     iteration #  7     ecut=    60.00 Ry     beta= 0.70
     Davidson diagonalization with overlap
     ethr =  1.92E-07,  avg # of iterations =  3.2

     total cpu time spent up to now is      197.9 secs

     total energy              =   -1824.47265746 Ry
     estimated scf accuracy    <       0.00000049 Ry

     iteration #  8     ecut=    60.00 Ry     beta= 0.70
     Davidson diagonalization with overlap
     ethr =  1.21E-09,  avg # of iterations = 13.7

     total cpu time spent up to now is      217.7 secs

     total energy              =   -1824.47266416 Ry
     estimated scf accuracy    <       0.00000040 Ry

     iteration #  9     ecut=    60.00 Ry     beta= 0.70
     Davidson diagonalization with overlap
     ethr =  9.94E-10,  avg # of iterations =  1.2

     total cpu time spent up to now is      222.0 secs

     total energy              =   -1824.47266404 Ry
     estimated scf accuracy    <       0.00000045 Ry

     iteration # 10     ecut=    60.00 Ry     beta= 0.70
     Davidson diagonalization with overlap
     ethr =  9.94E-10,  avg # of iterations =  2.1

     total cpu time spent up to now is      226.9 secs

     total energy              =   -1824.47266405 Ry
     estimated scf accuracy    <       0.00000008 Ry

     iteration # 11     ecut=    60.00 Ry     beta= 0.70
     Davidson diagonalization with overlap
     ethr =  2.07E-10,  avg # of iterations =  2.7

     total cpu time spent up to now is      232.2 secs

     total energy              =   -1824.47266406 Ry
     estimated scf accuracy    <       0.00000004 Ry

     iteration # 12     ecut=    60.00 Ry     beta= 0.70
     Davidson diagonalization with overlap
     ethr =  9.40E-11,  avg # of iterations =  2.3

     total cpu time spent up to now is      236.9 secs

     total energy              =   -1824.47266406 Ry
     estimated scf accuracy    <       0.00000003 Ry

     iteration # 13     ecut=    60.00 Ry     beta= 0.70
     Davidson diagonalization with overlap
     ethr =  7.64E-11,  avg # of iterations =  1.7

     total cpu time spent up to now is      241.2 secs

     total energy              =   -1824.47266406 Ry
     estimated scf accuracy    <       0.00000002 Ry

     iteration # 14     ecut=    60.00 Ry     beta= 0.70
     Davidson diagonalization with overlap
     ethr =  4.75E-11,  avg # of iterations =  4.9

     total cpu time spent up to now is      246.6 secs

     End of self-consistent calculation

          k = 0.0000 0.0000 0.0000 (  4219 PWs)   bands (ev):

    -9.7226  -9.3034  -7.7331  -7.7331  -7.6850  -7.6618  -7.6059  -7.5424
    -7.5368  -7.5368  -7.5181  -6.2323   1.2274   1.5408   4.3010   4.3010
     6.7327   6.8317   6.8317   8.2243  10.5754  13.7000  13.7000  13.7845

          k = 0.0000 0.0000 0.1572 (  4207 PWs)   bands (ev):

    -9.7148  -9.2976  -7.7187  -7.7187  -7.6729  -7.6711  -7.5983  -7.5538
    -7.5538  -7.5477  -7.5258  -6.2278   0.3974   2.5881   4.3541   4.3541
     6.7173   6.8228   6.8228   8.0305  10.3584  12.9229  12.9229  13.3908

          k = 0.0000 0.0000 0.3144 (  4200 PWs)   bands (ev):

    -9.7021  -9.2882  -7.6908  -7.6855  -7.6855  -7.6441  -7.5912  -7.5912
    -7.5802  -7.5606  -7.5439  -6.2207  -0.1428   3.5794   4.4439   4.4439
     6.6929   6.8056   6.8056   7.5303  10.2462  12.2550  12.2550  12.5600

          k = 0.0000 0.1971 0.0000 (  4183 PWs)   bands (ev):

    -9.6563  -9.3255  -7.7160  -7.7148  -7.6608  -7.6422  -7.6126  -7.5587
    -7.5482  -7.5330  -7.4260  -6.3335   1.0927   1.5419   4.4420   4.5297
     6.1435   6.5735   6.6469   8.1539  11.4515  12.0737  13.8442  13.9025

          k = 0.0000 0.1971 0.1572 (  4194 PWs)   bands (ev):

    -9.6530  -9.3224  -7.7117  -7.7010  -7.6506  -7.6488  -7.6112  -7.5675
    -7.5656  -7.5211  -7.4316  -6.3292   0.4992   2.2220   4.4326   4.5740
     6.2015   6.5665   6.6956   8.0112  11.2345  11.4944  13.2302  14.3920

          k = 0.0000 0.1971 0.3144 (  4191 PWs)   bands (ev):

    -9.6476  -9.3175  -7.6967  -7.6758  -7.6614  -7.6386  -7.6248  -7.5872
    -7.5517  -7.5272  -7.4400  -6.3223   0.0456   2.8768   4.3168   4.6488
     6.2897   6.5530   6.9980   7.6061  10.7707  11.0597  12.6320  14.3145

          k = 0.0000 0.3943 0.0000 (  4200 PWs)   bands (ev):

    -9.5203  -9.3995  -7.6741  -7.6719  -7.6348  -7.6328  -7.5990  -7.5679
    -7.5606  -7.5584  -7.1149  -6.6637   1.0299   1.3209   4.9553   5.1384
     5.6615   5.9167   6.3687   7.2739  11.4557  11.7642  14.1979  14.4337

          k = 0.0000 0.3943 0.1572 (  4212 PWs)   bands (ev):

    -9.5236  -9.4020  -7.6912  -7.6648  -7.6542  -7.6361  -7.5889  -7.5568
    -7.5556  -7.5334  -7.1118  -6.6588   0.8261   1.4781   4.7440   5.1619
     5.5629   5.9200   6.6609   7.3779  11.2280  11.7369  14.0701  14.3658

          k = 0.0000 0.3943 0.3144 (  4218 PWs)   bands (ev):

    -9.5289  -9.4060  -7.7061  -7.6866  -7.6539  -7.6375  -7.5691  -7.5550
    -7.5268  -7.5161  -7.1061  -6.6508   0.6141   1.6208   4.4905   5.2012
     5.4006   5.9246   7.1616   7.4335  10.8957  11.6569  13.6930  14.9669

          k = 0.1971 0.1971 0.0000 (  4205 PWs)   bands (ev):

    -9.6042  -9.3439  -7.7185  -7.6730  -7.6406  -7.6296  -7.6175  -7.5606
    -7.5434  -7.5274  -7.3510  -6.4050   0.8998   1.4419   4.3175   5.1236
     5.7667   6.0219   7.1329   7.9983  11.7950  11.8175  12.8489  13.1649

          k = 0.1971 0.1971 0.1572 (  4205 PWs)   bands (ev):

    -9.6035  -9.3420  -7.7049  -7.6815  -7.6375  -7.6345  -7.6030  -7.5723
    -7.5453  -7.5395  -7.3364  -6.3980   0.5128   1.8646   4.1458   5.1749
     5.9453   6.1133   7.1350   7.8233  11.5037  11.8476  11.8797  14.2608

          k = 0.1971 0.1971 0.3144 (  4204 PWs)   bands (ev):

    -9.6024  -9.3390  -7.6925  -7.6715  -7.6447  -7.6215  -7.6003  -7.5828
    -7.5807  -7.5356  -7.3133  -6.3868   0.1609   2.3261   3.8714   5.2839
     5.7975   6.7324   7.1386   7.4737  10.7295  11.6305  11.9647  14.9853

          k = 0.1971 0.3943 0.0000 (  4213 PWs)   bands (ev):

    -9.4993  -9.4047  -7.6714  -7.6440  -7.6324  -7.6255  -7.5833  -7.5525
    -7.5492  -7.5389  -7.0648  -6.6675   0.7433   1.0458   4.7090   5.3985
     5.8760   5.8957   6.9680   7.2403  11.0098  11.2710  13.3832  13.6878

          k = 0.1971 0.3943 0.1572 (  4203 PWs)   bands (ev):

    -9.5018  -9.4058  -7.6741  -7.6602  -7.6261  -7.6171  -7.5880  -7.5687
    -7.5395  -7.5335  -7.0439  -6.6532   0.6401   1.1533   4.3732   5.1824
     5.9987   6.2822   6.9629   7.2192  11.0535  11.3555  12.9578  13.9112

          k = 0.1971 0.3943 0.3144 (  4207 PWs)   bands (ev):

    -9.5058  -9.4076  -7.6876  -7.6690  -7.6289  -7.6140  -7.5778  -7.5627
    -7.5475  -7.5346  -7.0105  -6.6307   0.5196   1.2854   4.0218   4.9347
     6.0856   6.7082   6.9489   7.1783  11.0669  11.7963  12.5704  13.8678

          k = 0.3943 0.3943 0.0000 (  4199 PWs)   bands (ev):

    -9.4616  -9.4274  -7.6554  -7.6544  -7.6041  -7.5750  -7.5452  -7.5388
    -7.5278  -7.5128  -6.9134  -6.7383   0.3576   0.5050   4.9121   5.2420
     6.2211   6.9051   6.9237   7.3875   9.8784  10.0199  13.3151  13.5951

          k = 0.3943 0.3943 0.1572 (  4206 PWs)   bands (ev):

    -9.4621  -9.4270  -7.6507  -7.6449  -7.6042  -7.5756  -7.5626  -7.5495
    -7.5375  -7.5371  -6.8735  -6.7064   0.3576   0.5547   4.6035   5.0694
     6.3268   6.7344   6.9762   7.3871  10.3253  10.3363  13.2260  13.7473

          k = 0.3943 0.3943 0.3144 (  4186 PWs)   bands (ev):

    -9.4629  -9.4263  -7.6533  -7.6249  -7.6062  -7.5793  -7.5768  -7.5684
    -7.5656  -7.5566  -6.8148  -6.6583   0.3638   0.6324   4.2399   4.8338
     6.2241   6.5744   7.0318   7.3866  11.3044  11.3916  12.5576  13.6698

     the Fermi energy is     9.1485 ev

!    total energy              =   -1824.47266406 Ry
     total all-electron energy =    -83829.223380 Ry
     estimated scf accuracy    <          3.9E-10 Ry
     smearing contrib. (-TS)   =      -0.00000000 Ry
     internal energy E=F+TS    =   -1824.47266406 Ry

     The total energy is F=E-TS. E is the sum of the following terms:
     one-electron contribution =    -104.82779034 Ry
     hartree contribution      =      84.87775851 Ry
     xc contribution           =    -103.61531352 Ry
     ewald contribution        =    -224.95749669 Ry
     one-center paw contrib.   =   -1475.94982203 Ry

     convergence has been achieved in  14 iterations

     Forces acting on atoms (cartesian axes, Ry/au):

     atom    1 type  1   force =     0.00000000    0.00000000   -0.01219903
     atom    2 type  1   force =     0.00000000    0.00000000    0.01219903
     atom    3 type  2   force =     0.00000000    0.00000000    0.00000000
     atom    4 type  2   force =     0.00000000    0.00000000    0.00000000

     Total force =     0.017252     Total SCF correction =     0.000015


     Computing stress (Cartesian axis) and pressure

          total   stress  (Ry/bohr**3)                   (kbar)     P=        7.19
   0.00006871   0.00000000   0.00000000           10.11        0.00        0.00
   0.00000000   0.00006871   0.00000000            0.00       10.11        0.00
   0.00000000   0.00000000   0.00000914            0.00        0.00        1.34

     Energy error            =      1.3E-03 Ry
     Gradient error          =      1.2E-02 Ry/Bohr
     Cell gradient error     =      1.0E+01 kbar

     number of scf cycles    =   3
     number of bfgs steps    =   2

     enthalpy           old  =   -1824.4713959112 Ry
     enthalpy           new  =   -1824.4726640610 Ry

     CASE: enthalpy          _new < enthalpy          _old

     new trust radius        =       0.0480031605 bohr
     new conv_thr            =       0.0000000012 Ry

     new unit-cell volume =    568.16960 a.u.^3 (    84.19405 Ang^3 )
     density =      8.80420 g/cm^3

CELL_PARAMETERS (alat=  7.51052751)
   1.024891495   0.000000000   0.000000000
   0.000000000   1.024891495   0.000000000
   0.000000000   0.000000000   1.276764760

ATOMIC_POSITIONS (crystal)
Pb               0.0000000000        0.5000000000        0.2368660803
Pb               0.5000000000        0.0000000000        0.7631339197
O                0.0000000000        0.0000000000        0.0000000000
O                0.5000000000        0.5000000000        0.0000000000



     Writing config-only to output data dir ./FeAl.save/ :
     XML data file
     NEW-OLD atomic charge density approx. for the potential
     New effective cutoffs (rho, wfc):  233.78   58.73

     Check: negative core charge=   -0.000007

     total cpu time spent up to now is      252.7 secs

     Self-consistent Calculation

     iteration #  1     ecut=    60.00 Ry     beta= 0.70
     Davidson diagonalization with overlap
     ethr =  1.00E-06,  avg # of iterations =  9.7

     total cpu time spent up to now is      267.5 secs

     total energy              =   -1824.46894315 Ry
     estimated scf accuracy    <       0.00685077 Ry

     iteration #  2     ecut=    60.00 Ry     beta= 0.70
     Davidson diagonalization with overlap
     ethr =  1.71E-05,  avg # of iterations =  4.7

     total cpu time spent up to now is      276.1 secs

     total energy              =   -1824.47121332 Ry
     estimated scf accuracy    <       0.01117845 Ry

     iteration #  3     ecut=    60.00 Ry     beta= 0.70
     Davidson diagonalization with overlap
     ethr =  1.71E-05,  avg # of iterations =  2.5

     total cpu time spent up to now is      281.4 secs

     total energy              =   -1824.47322887 Ry
     estimated scf accuracy    <       0.00217515 Ry

     iteration #  4     ecut=    60.00 Ry     beta= 0.70
     Davidson diagonalization with overlap
     ethr =  5.44E-06,  avg # of iterations =  1.7

     total cpu time spent up to now is      286.0 secs

     total energy              =   -1824.47353968 Ry
     estimated scf accuracy    <       0.00080652 Ry

     iteration #  5     ecut=    60.00 Ry     beta= 0.70
     Davidson diagonalization with overlap
     ethr =  2.02E-06,  avg # of iterations =  1.8

     total cpu time spent up to now is      290.4 secs

     total energy              =   -1824.47361627 Ry
     estimated scf accuracy    <       0.00044174 Ry

     iteration #  6     ecut=    60.00 Ry     beta= 0.70
     Davidson diagonalization with overlap
     ethr =  1.10E-06,  avg # of iterations =  1.9

     total cpu time spent up to now is      295.1 secs

     total energy              =   -1824.47364933 Ry
     estimated scf accuracy    <       0.00012381 Ry

     iteration #  7     ecut=    60.00 Ry     beta= 0.70
     Davidson diagonalization with overlap
     ethr =  3.10E-07,  avg # of iterations =  3.1

     total cpu time spent up to now is      300.6 secs

     total energy              =   -1824.47367858 Ry
     estimated scf accuracy    <       0.00000188 Ry

     iteration #  8     ecut=    60.00 Ry     beta= 0.70
     Davidson diagonalization with overlap
     ethr =  4.71E-09,  avg # of iterations = 12.1

     total cpu time spent up to now is      317.3 secs

     total energy              =   -1824.47369045 Ry
     estimated scf accuracy    <       0.00000023 Ry

     iteration #  9     ecut=    60.00 Ry     beta= 0.70
     Davidson diagonalization with overlap
     ethr =  5.68E-10,  avg # of iterations =  4.7

     total cpu time spent up to now is      323.0 secs

     total energy              =   -1824.47369044 Ry
     estimated scf accuracy    <       0.00000028 Ry

     iteration # 10     ecut=    60.00 Ry     beta= 0.70
     Davidson diagonalization with overlap
     ethr =  5.68E-10,  avg # of iterations =  3.3

     total cpu time spent up to now is      328.4 secs

     total energy              =   -1824.47369049 Ry
     estimated scf accuracy    <       0.00000001 Ry

     iteration # 11     ecut=    60.00 Ry     beta= 0.70
     Davidson diagonalization with overlap
     ethr =  3.34E-11,  avg # of iterations =  5.8

     total cpu time spent up to now is      336.5 secs

     total energy              =   -1824.47369051 Ry
     estimated scf accuracy    <       0.00000003 Ry

     iteration # 12     ecut=    60.00 Ry     beta= 0.70
     Davidson diagonalization with overlap
     ethr =  3.34E-11,  avg # of iterations =  2.0

     total cpu time spent up to now is      341.3 secs

     total energy              =   -1824.47369051 Ry
     estimated scf accuracy    <       0.00000002 Ry

     iteration # 13     ecut=    60.00 Ry     beta= 0.70
     Davidson diagonalization with overlap
     ethr =  3.34E-11,  avg # of iterations =  1.0

     total cpu time spent up to now is      345.5 secs

     total energy              =   -1824.47369051 Ry
     estimated scf accuracy    <          8.7E-09 Ry

     iteration # 14     ecut=    60.00 Ry     beta= 0.70
     Davidson diagonalization with overlap
     ethr =  2.18E-11,  avg # of iterations =  1.0

     total cpu time spent up to now is      349.6 secs

     total energy              =   -1824.47369050 Ry
     estimated scf accuracy    <          6.1E-09 Ry

     iteration # 15     ecut=    60.00 Ry     beta= 0.70
     Davidson diagonalization with overlap
     ethr =  1.53E-11,  avg # of iterations =  2.2

     total cpu time spent up to now is      354.7 secs

     End of self-consistent calculation

          k = 0.0000 0.0000 0.0000 (  4219 PWs)   bands (ev):

    -9.9216  -9.5637  -8.0345  -8.0345  -7.9913  -7.9562  -7.9116  -7.8519
    -7.8513  -7.8513  -7.8265  -6.5499   0.9841   1.3184   4.0398   4.0398
     6.4633   6.5038   6.5038   7.8539  10.1451  13.3138  13.3737  13.3737

          k = 0.0000 0.0000 0.1566 (  4207 PWs)   bands (ev):

    -9.9147  -9.5585  -8.0216  -8.0216  -7.9788  -7.9657  -7.9046  -7.8666
    -7.8666  -7.8560  -7.8334  -6.5463   0.2108   2.2843   4.0899   4.0899
     6.4472   6.4955   6.4955   7.7013   9.9256  12.6100  12.6100  12.9290

          k = 0.0000 0.0000 0.3133 (  4200 PWs)   bands (ev):

    -9.9036  -9.5502  -7.9924  -7.9924  -7.9812  -7.9555  -7.8996  -7.8996
    -7.8888  -7.8655  -7.8493  -6.5405  -0.3038   3.1874   4.1745   4.1745
     6.4215   6.4796   6.4796   7.2958   9.7905  11.9590  11.9590  12.1302

          k = 0.0000 0.1951 0.0000 (  4183 PWs)   bands (ev):

    -9.8615  -9.5802  -8.0193  -8.0149  -7.9695  -7.9383  -7.9196  -7.8724
    -7.8596  -7.8397  -7.7368  -6.6540   0.8382   1.2902   4.1937   4.2626
     5.8828   6.2531   6.3690   7.8151  11.0206  11.7557  13.4347  13.5656

          k = 0.0000 0.1951 0.1566 (  4194 PWs)   bands (ev):

    -9.8587  -9.5775  -8.0152  -8.0026  -7.9599  -7.9444  -7.9205  -7.8789
    -7.8732  -7.8309  -7.7409  -6.6504   0.2912   1.9137   4.1724   4.3046
     5.9497   6.2467   6.4163   7.6908  10.8028  11.1699  12.9054  13.9796

          k = 0.0000 0.1951 0.3133 (  4191 PWs)   bands (ev):

    -9.8542  -9.5731  -8.0016  -7.9801  -7.9555  -7.9450  -7.9371  -7.8985
    -7.8593  -7.8364  -7.7467  -6.6446  -0.1353   2.5149   4.0552   4.3753
     6.0310   6.2346   6.7070   7.3364  10.4550  10.6182  12.3224  13.8905

          k = 0.0000 0.3903 0.0000 (  4200 PWs)   bands (ev):

    -9.7414  -9.6395  -7.9817  -7.9713  -7.9429  -7.9342  -7.9115  -7.8724
    -7.8719  -7.8644  -7.4286  -6.9840   0.7522   1.0315   4.7223   4.8557
     5.4410   5.6141   6.1242   7.0183  11.1125  11.3988  13.7056  14.0660

          k = 0.0000 0.3903 0.1566 (  4212 PWs)   bands (ev):

    -9.7445  -9.6416  -7.9959  -7.9656  -7.9615  -7.9364  -7.9014  -7.8692
    -7.8623  -7.8419  -7.4253  -6.9795   0.5701   1.1790   4.5082   4.8784
     5.3328   5.6177   6.4128   7.1113  10.8878  11.3680  13.7110  13.8950

          k = 0.0000 0.3903 0.3133 (  4218 PWs)   bands (ev):

    -9.7493  -9.6451  -8.0090  -7.9902  -7.9570  -7.9383  -7.8833  -7.8682
    -7.8361  -7.8266  -7.4194  -6.9721   0.3799   1.3184   4.2521   4.9162
     5.1612   5.6229   6.8864   7.1614  10.5701  11.2768  13.3445  14.5076

          k = 0.1951 0.1951 0.0000 (  4205 PWs)   bands (ev):

    -9.8142  -9.5938  -8.0185  -7.9776  -7.9513  -7.9287  -7.9214  -7.8758
    -7.8492  -7.8416  -7.6599  -6.7286   0.6391   1.1665   4.0808   4.8470
     5.5272   5.7639   6.8145   7.6780  11.4119  11.5454  12.4916  12.7145

          k = 0.1951 0.1951 0.1566 (  4205 PWs)   bands (ev):

    -9.8138  -9.5921  -8.0058  -7.9850  -7.9472  -7.9335  -7.9097  -7.8855
    -7.8574  -7.8462  -7.6466  -6.7226   0.2854   1.5550   3.9041   4.8961
     5.6893   5.8648   6.8168   7.5209  11.1473  11.4324  11.6071  13.8292

          k = 0.1951 0.1951 0.3133 (  4204 PWs)   bands (ev):

    -9.8130  -9.5893  -7.9949  -7.9740  -7.9458  -7.9316  -7.9114  -7.8902
    -7.8894  -7.8428  -7.6254  -6.7130  -0.0407   1.9799   3.6361   4.9981
     5.5484   6.4438   6.8207   7.2130  10.3998  11.1932  11.6912  14.5551

          k = 0.1951 0.3903 0.0000 (  4213 PWs)   bands (ev):

    -9.7216  -9.6419  -7.9737  -7.9494  -7.9362  -7.9291  -7.8962  -7.8635
    -7.8589  -7.8492  -7.3799  -6.9912   0.4676   0.7533   4.4772   5.1544
     5.6142   5.6642   6.6583   6.9718  10.7160  10.9474  13.0265  13.2350

          k = 0.1951 0.3903 0.1566 (  4203 PWs)   bands (ev):

    -9.7239  -9.6429  -7.9771  -7.9625  -7.9317  -7.9213  -7.9004  -7.8764
    -7.8514  -7.8439  -7.3613  -6.9787   0.3759   0.8555   4.1561   4.9514
     5.7072   6.0356   6.6562   6.9505  10.7412  11.0450  12.5759  13.4941

          k = 0.1951 0.3903 0.3133 (  4207 PWs)   bands (ev):

    -9.7276  -9.6445  -7.9893  -7.9712  -7.9352  -7.9179  -7.8893  -7.8738
    -7.8574  -7.8434  -7.3315  -6.9590   0.2701   0.9826   3.8128   4.7144
     5.7841   6.4154   6.6533   6.9145  10.7372  11.4571  12.2392  13.4933

          k = 0.3903 0.3903 0.0000 (  4199 PWs)   bands (ev):

    -9.6870  -9.6583  -7.9569  -7.9550  -7.9095  -7.8814  -7.8613  -7.8546
    -7.8390  -7.8270  -7.2355  -7.0660   0.0854   0.2226   4.6901   5.0173
     5.9864   6.6133   6.6370   7.0632   9.6306   9.7463  12.9929  13.2469

          k = 0.3903 0.3903 0.1566 (  4206 PWs)   bands (ev):

    -9.6876  -9.6580  -7.9524  -7.9463  -7.9095  -7.8821  -7.8753  -7.8636
    -7.8495  -7.8480  -7.2006  -7.0382   0.0872   0.2711   4.3976   4.8544
     6.0739   6.4740   6.6615   7.0630  10.0479  10.0787  12.8614  13.3658

          k = 0.3903 0.3903 0.3133 (  4186 PWs)   bands (ev):

    -9.6884  -9.6575  -7.9543  -7.9273  -7.9106  -7.8870  -7.8863  -7.8796
    -7.8745  -7.8676  -7.1488  -6.9959   0.0965   0.3467   4.0481   4.6310
     5.9659   6.3173   6.7130   7.0627  11.0010  11.1230  12.2015  13.2771

     the Fermi energy is     8.7761 ev

!    total energy              =   -1824.47369051 Ry
     total all-electron energy =    -83829.224407 Ry
     estimated scf accuracy    <          3.8E-10 Ry
     smearing contrib. (-TS)   =       0.00000000 Ry
     internal energy E=F+TS    =   -1824.47369051 Ry

     The total energy is F=E-TS. E is the sum of the following terms:
     one-electron contribution =    -108.89074765 Ry
     hartree contribution      =      86.46724551 Ry
     xc contribution           =    -103.58419386 Ry
     ewald contribution        =    -222.51728572 Ry
     one-center paw contrib.   =   -1475.94870879 Ry

     convergence has been achieved in  15 iterations

     Forces acting on atoms (cartesian axes, Ry/au):

     atom    1 type  1   force =     0.00000000    0.00000000   -0.01227137
     atom    2 type  1   force =     0.00000000    0.00000000    0.01227137
     atom    3 type  2   force =     0.00000000    0.00000000    0.00000000
     atom    4 type  2   force =     0.00000000    0.00000000    0.00000000

     Total force =     0.017354     Total SCF correction =     0.000021


     Computing stress (Cartesian axis) and pressure

          total   stress  (Ry/bohr**3)                   (kbar)     P=       -3.20
  -0.00002436   0.00000000   0.00000000           -3.58        0.00        0.00
   0.00000000  -0.00002436   0.00000000            0.00       -3.58        0.00
   0.00000000   0.00000000  -0.00001647            0.00        0.00       -2.42

     Energy error            =      1.0E-03 Ry
     Gradient error          =      1.2E-02 Ry/Bohr
     Cell gradient error     =      3.6E+00 kbar

     number of scf cycles    =   4
     number of bfgs steps    =   3

     enthalpy           old  =   -1824.4726640610 Ry
     enthalpy           new  =   -1824.4736905059 Ry

     CASE: enthalpy          _new < enthalpy          _old

     new trust radius        =       0.0278800109 bohr
     new conv_thr            =       0.0000000010 Ry

     new unit-cell volume =    574.20636 a.u.^3 (    85.08860 Ang^3 )
     density =      8.71164 g/cm^3

CELL_PARAMETERS (alat=  7.51052751)
   1.029455422   0.000000000   0.000000000
   0.000000000   1.029455422   0.000000000
   0.000000000   0.000000000   1.278914720

ATOMIC_POSITIONS (crystal)
Pb               0.0000000000        0.5000000000        0.2339586346
Pb               0.5000000000        0.0000000000        0.7660413654
O                0.0000000000        0.0000000000        0.0000000000
O                0.5000000000        0.5000000000        0.0000000000



     Writing config-only to output data dir ./FeAl.save/ :
     XML data file
     NEW-OLD atomic charge density approx. for the potential
     New effective cutoffs (rho, wfc):  232.96   58.53

     Check: negative core charge=   -0.000007

     total cpu time spent up to now is      361.0 secs

     Self-consistent Calculation

     iteration #  1     ecut=    60.00 Ry     beta= 0.70
     Davidson diagonalization with overlap
     ethr =  1.00E-06,  avg # of iterations =  7.9

     total cpu time spent up to now is      374.3 secs

     total energy              =   -1824.47307548 Ry
     estimated scf accuracy    <       0.00140911 Ry

     iteration #  2     ecut=    60.00 Ry     beta= 0.70
     Davidson diagonalization with overlap
     ethr =  3.52E-06,  avg # of iterations =  4.7

     total cpu time spent up to now is      382.7 secs

     total energy              =   -1824.47355572 Ry
     estimated scf accuracy    <       0.00219252 Ry

     iteration #  3     ecut=    60.00 Ry     beta= 0.70
     Davidson diagonalization with overlap
     ethr =  3.52E-06,  avg # of iterations =  2.7

     total cpu time spent up to now is      387.9 secs

     total energy              =   -1824.47397592 Ry
     estimated scf accuracy    <       0.00042989 Ry

     iteration #  4     ecut=    60.00 Ry     beta= 0.70
     Davidson diagonalization with overlap
     ethr =  1.07E-06,  avg # of iterations =  1.9

     total cpu time spent up to now is      392.8 secs

     total energy              =   -1824.47404842 Ry
     estimated scf accuracy    <       0.00015258 Ry

     iteration #  5     ecut=    60.00 Ry     beta= 0.70
     Davidson diagonalization with overlap
     ethr =  3.81E-07,  avg # of iterations =  2.4

     total cpu time spent up to now is      397.8 secs

     total energy              =   -1824.47407006 Ry
     estimated scf accuracy    <       0.00008869 Ry

     iteration #  6     ecut=    60.00 Ry     beta= 0.70
     Davidson diagonalization with overlap
     ethr =  2.22E-07,  avg # of iterations =  2.0

     total cpu time spent up to now is      402.7 secs

     total energy              =   -1824.47407778 Ry
     estimated scf accuracy    <       0.00001228 Ry

     iteration #  7     ecut=    60.00 Ry     beta= 0.70
     Davidson diagonalization with overlap
     ethr =  3.07E-08,  avg # of iterations =  5.3

     total cpu time spent up to now is      410.5 secs

     total energy              =   -1824.47408572 Ry
     estimated scf accuracy    <       0.00000144 Ry

     iteration #  8     ecut=    60.00 Ry     beta= 0.70
     Davidson diagonalization with overlap
     ethr =  3.61E-09,  avg # of iterations =  5.6

     total cpu time spent up to now is      417.7 secs

     total energy              =   -1824.47408644 Ry
     estimated scf accuracy    <       0.00000034 Ry

     iteration #  9     ecut=    60.00 Ry     beta= 0.70
     Davidson diagonalization with overlap
     ethr =  8.49E-10,  avg # of iterations =  3.2

     total cpu time spent up to now is      423.0 secs

     total energy              =   -1824.47408650 Ry
     estimated scf accuracy    <       0.00000040 Ry

     iteration # 10     ecut=    60.00 Ry     beta= 0.70
     Davidson diagonalization with overlap
     ethr =  8.49E-10,  avg # of iterations =  1.4

     total cpu time spent up to now is      427.6 secs

     total energy              =   -1824.47408651 Ry
     estimated scf accuracy    <       0.00000006 Ry

     iteration # 11     ecut=    60.00 Ry     beta= 0.70
     Davidson diagonalization with overlap
     ethr =  1.39E-10,  avg # of iterations =  4.5

     total cpu time spent up to now is      433.5 secs

     total energy              =   -1824.47408652 Ry
     estimated scf accuracy    <       0.00000001 Ry

     iteration # 12     ecut=    60.00 Ry     beta= 0.70
     Davidson diagonalization with overlap
     ethr =  3.57E-11,  avg # of iterations =  2.7

     total cpu time spent up to now is      438.4 secs

     total energy              =   -1824.47408652 Ry
     estimated scf accuracy    <       0.00000001 Ry

     iteration # 13     ecut=    60.00 Ry     beta= 0.70
     Davidson diagonalization with overlap
     ethr =  3.31E-11,  avg # of iterations =  1.1

     total cpu time spent up to now is      442.7 secs

     total energy              =   -1824.47408652 Ry
     estimated scf accuracy    <       0.00000001 Ry

     iteration # 14     ecut=    60.00 Ry     beta= 0.70
     Davidson diagonalization with overlap
     ethr =  3.11E-11,  avg # of iterations =  2.0

     total cpu time spent up to now is      447.5 secs

     total energy              =   -1824.47408652 Ry
     estimated scf accuracy    <          3.5E-09 Ry

     iteration # 15     ecut=    60.00 Ry     beta= 0.70
     Davidson diagonalization with overlap
     ethr =  8.64E-12,  avg # of iterations =  4.4

     total cpu time spent up to now is      453.3 secs

     End of self-consistent calculation

          k = 0.0000 0.0000 0.0000 (  4219 PWs)   bands (ev):

   -10.0362  -9.6995  -8.1605  -8.1605  -8.1188  -8.0766  -8.0363  -7.9813
    -7.9813  -7.9776  -7.9510  -6.6718   0.8773   1.2542   3.9001   3.9001
     6.3364   6.3364   6.3398   7.6958   9.9520  13.0789  13.2718  13.2718

          k = 0.0000 0.0000 0.1564 (  4207 PWs)   bands (ev):

   -10.0299  -9.6948  -8.1484  -8.1484  -8.1071  -8.0853  -8.0298  -7.9956
    -7.9956  -7.9809  -7.9575  -6.6685   0.1456   2.1665   3.9480   3.9480
     6.3235   6.3285   6.3285   7.5646   9.7266  12.5088  12.5088  12.7161

          k = 0.0000 0.0000 0.3128 (  4200 PWs)   bands (ev):

   -10.0197  -9.6871  -8.1215  -8.1215  -8.0993  -8.0859  -8.0261  -8.0261
    -8.0155  -7.9884  -7.9719  -6.6634  -0.3548   3.0266   4.0289   4.0289
     6.2974   6.3136   6.3136   7.2063   9.5723  11.8660  11.8660  11.9466

          k = 0.0000 0.1943 0.0000 (  4183 PWs)   bands (ev):

    -9.9777  -9.7135  -8.1462  -8.1395  -8.0978  -8.0592  -8.0464  -8.0014
    -7.9869  -7.9635  -7.8642  -6.7789   0.7232   1.2048   4.0635   4.1205
     5.7583   6.0890   6.2375   7.6772  10.8309  11.6401  13.2586  13.4581

          k = 0.0000 0.1943 0.1564 (  4194 PWs)   bands (ev):

    -9.9751  -9.7109  -8.1421  -8.1282  -8.0887  -8.0649  -8.0488  -8.0078
    -7.9970  -7.9565  -7.8673  -6.7756   0.2110   1.7877   4.0355   4.1608
     5.8327   6.0831   6.2834   7.5613  10.6074  11.0473  12.7987  13.8065

          k = 0.0000 0.1943 0.3128 (  4191 PWs)   bands (ev):

    -9.9709  -9.7068  -8.1294  -8.1076  -8.0751  -8.0716  -8.0674  -8.0263
    -7.9844  -7.9614  -7.8714  -6.7704  -0.1995   2.3593   3.9165   4.2286
     5.9131   6.0718   6.5685   7.2306  10.3226  10.4263  12.2228  13.7185

          k = 0.0000 0.3886 0.0000 (  4200 PWs)   bands (ev):

    -9.8619  -9.7664  -8.1108  -8.0943  -8.0728  -8.0568  -8.0407  -8.0008
    -7.9951  -7.9865  -7.5574  -7.1129   0.6259   0.9107   4.6060   4.7075
     5.3393   5.4577   6.0186   6.9225  10.9801  11.2536  13.4775  13.9411

          k = 0.0000 0.3886 0.1564 (  4212 PWs)   bands (ev):

    -9.8647  -9.7683  -8.1233  -8.0897  -8.0896  -8.0596  -8.0305  -7.9981
    -7.9856  -7.9668  -7.5540  -7.1086   0.4592   1.0491   4.3908   4.7294
     5.2262   5.4614   6.3071   7.0077  10.7538  11.2188  13.5880  13.6822

          k = 0.0000 0.3886 0.3128 (  4218 PWs)   bands (ev):

    -9.8691  -9.7714  -8.1353  -8.1162  -8.0824  -8.0616  -8.0134  -7.9967
    -7.9617  -7.9527  -7.5479  -7.1017   0.2822   1.1851   4.1332   4.7659
     5.0501   5.4668   6.7693   7.0526  10.4410  11.1177  13.2264  14.3068

          k = 0.1943 0.1943 0.0000 (  4205 PWs)   bands (ev):

    -9.9312  -9.7244  -8.1431  -8.1044  -8.0806  -8.0515  -8.0456  -8.0059
    -7.9724  -7.9708  -7.7864  -6.8563   0.5173   1.0612   3.9569   4.7038
     5.4165   5.6390   6.6574   7.5517  11.2542  11.4638  12.3521  12.5153

          k = 0.1943 0.1943 0.1564 (  4205 PWs)   bands (ev):

    -9.9307  -9.7228  -8.1309  -8.1113  -8.0760  -8.0562  -8.0357  -8.0147
    -7.9855  -7.9699  -7.7737  -6.8508   0.1896   1.4225   3.7777   4.7514
     5.5664   5.7507   6.6598   7.4029  11.0027  11.2517  11.5248  13.6467

          k = 0.1943 0.1943 0.3128 (  4204 PWs)   bands (ev):

    -9.9300  -9.7203  -8.1206  -8.1005  -8.0695  -8.0607  -8.0401  -8.0167
    -8.0142  -7.9667  -7.7535  -6.8421  -0.1199   1.8249   3.5122   4.8485
     5.4310   6.3137   6.6637   7.1121  10.2690  10.9957  11.6078  14.3799

          k = 0.1943 0.3886 0.0000 (  4213 PWs)   bands (ev):

    -9.8412  -9.7667  -8.0993  -8.0756  -8.0619  -8.0539  -8.0260  -7.9927
    -7.9823  -7.9756  -7.5097  -7.1225   0.3365   0.6227   4.3593   5.0339
     5.4745   5.5794   6.5074   6.8688  10.6162  10.8290  12.8923  13.0400

          k = 0.1943 0.3886 0.1564 (  4203 PWs)   bands (ev):

    -9.8433  -9.7676  -8.1029  -8.0873  -8.0584  -8.0464  -8.0294  -8.0023
    -7.9784  -7.9700  -7.4923  -7.1110   0.2538   0.7192   4.0487   4.8407
     5.5599   5.9287   6.5092   6.8466  10.6254  10.9352  12.4210  13.3241

          k = 0.1943 0.3886 0.3128 (  4207 PWs)   bands (ev):

    -9.8467  -9.7691  -8.1142  -8.0959  -8.0622  -8.0429  -8.0181  -8.0014
    -7.9835  -7.9686  -7.4645  -7.0927   0.1575   0.8417   3.7106   4.6118
     5.6302   6.2767   6.5230   6.8101  10.6050  11.3245  12.1202  13.3510

          k = 0.3886 0.3886 0.0000 (  4199 PWs)   bands (ev):

    -9.8058  -9.7790  -8.0807  -8.0781  -8.0354  -8.0073  -7.9920  -7.9846
    -7.9659  -7.9559  -7.3693  -7.2010  -0.0505   0.0850   4.5801   4.9072
     5.8990   6.4608   6.5357   6.9035   9.5560   9.6571  12.8765  13.1169

          k = 0.3886 0.3886 0.1564 (  4206 PWs)   bands (ev):

    -9.8063  -9.7788  -8.0764  -8.0698  -8.0351  -8.0083  -8.0046  -7.9927
    -7.9763  -7.9753  -7.3371  -7.1754  -0.0471   0.1315   4.3003   4.7519
     5.9761   6.3763   6.5057   6.9033   9.9546   9.9976  12.7156  13.2133

          k = 0.3886 0.3886 0.3128 (  4186 PWs)   bands (ev):

    -9.8072  -9.7784  -8.0777  -8.0512  -8.0350  -8.0146  -8.0140  -8.0087
    -7.9994  -7.9933  -7.2890  -7.1364  -0.0360   0.2045   3.9612   4.5378
     5.8696   6.2189   6.5544   6.9032  10.8879  11.0358  12.0604  13.1131

     the Fermi energy is     8.6160 ev

!    total energy              =   -1824.47408652 Ry
     total all-electron energy =    -83829.224803 Ry
     estimated scf accuracy    <          1.9E-10 Ry
     smearing contrib. (-TS)   =       0.00000000 Ry
     internal energy E=F+TS    =   -1824.47408652 Ry

     The total energy is F=E-TS. E is the sum of the following terms:
     one-electron contribution =    -111.39252542 Ry
     hartree contribution      =      87.52988078 Ry
     xc contribution           =    -103.57944376 Ry
     ewald contribution        =    -221.08329419 Ry
     one-center paw contrib.   =   -1475.94870393 Ry

     convergence has been achieved in  15 iterations

     Forces acting on atoms (cartesian axes, Ry/au):

     atom    1 type  1   force =     0.00000000    0.00000000   -0.00844523
     atom    2 type  1   force =     0.00000000    0.00000000    0.00844523
     atom    3 type  2   force =     0.00000000    0.00000000    0.00000000
     atom    4 type  2   force =     0.00000000    0.00000000    0.00000000

     Total force =     0.011943     Total SCF correction =     0.000014


     Computing stress (Cartesian axis) and pressure

          total   stress  (Ry/bohr**3)                   (kbar)     P=       -4.24
  -0.00004395   0.00000000   0.00000000           -6.46        0.00        0.00
   0.00000000  -0.00004395   0.00000000            0.00       -6.46        0.00
   0.00000000   0.00000000   0.00000139            0.00        0.00        0.20

     Energy error            =      4.0E-04 Ry
     Gradient error          =      8.4E-03 Ry/Bohr
     Cell gradient error     =      6.5E+00 kbar

     number of scf cycles    =   5
     number of bfgs steps    =   4

     enthalpy           old  =   -1824.4736905059 Ry
     enthalpy           new  =   -1824.4740865219 Ry

     CASE: enthalpy          _new < enthalpy          _old

     new trust radius        =       0.0290617470 bohr
     new conv_thr            =       0.0000000004 Ry

     new unit-cell volume =    577.69566 a.u.^3 (    85.60566 Ang^3 )
     density =      8.65902 g/cm^3

CELL_PARAMETERS (alat=  7.51052751)
   1.031604200   0.000000000   0.000000000
   0.000000000   1.031604200   0.000000000
   0.000000000   0.000000000   1.281331712

ATOMIC_POSITIONS (crystal)
Pb               0.0000000000        0.5000000000        0.2309330473
Pb               0.5000000000        0.0000000000        0.7690669527
O                0.0000000000        0.0000000000        0.0000000000
O                0.5000000000        0.5000000000        0.0000000000



     Writing config-only to output data dir ./FeAl.save/ :
     XML data file
     NEW-OLD atomic charge density approx. for the potential
     New effective cutoffs (rho, wfc):  232.08   58.31

     Check: negative core charge=   -0.000007

     total cpu time spent up to now is      459.6 secs

     Self-consistent Calculation

     iteration #  1     ecut=    60.00 Ry     beta= 0.70
     Davidson diagonalization with overlap
     ethr =  1.00E-06,  avg # of iterations =  7.4

     total cpu time spent up to now is      472.0 secs

     total energy              =   -1824.47392478 Ry
     estimated scf accuracy    <       0.00055029 Ry

     iteration #  2     ecut=    60.00 Ry     beta= 0.70
     Davidson diagonalization with overlap
     ethr =  1.38E-06,  avg # of iterations =  4.7

     total cpu time spent up to now is      480.6 secs

     total energy              =   -1824.47413630 Ry
     estimated scf accuracy    <       0.00080773 Ry

     iteration #  3     ecut=    60.00 Ry     beta= 0.70
     Davidson diagonalization with overlap
     ethr =  1.38E-06,  avg # of iterations =  2.6

     total cpu time spent up to now is      485.7 secs

     total energy              =   -1824.47428916 Ry
     estimated scf accuracy    <       0.00016848 Ry

     iteration #  4     ecut=    60.00 Ry     beta= 0.70
     Davidson diagonalization with overlap
     ethr =  4.21E-07,  avg # of iterations =  1.9

     total cpu time spent up to now is      490.2 secs

     total energy              =   -1824.47432115 Ry
     estimated scf accuracy    <       0.00006309 Ry

     iteration #  5     ecut=    60.00 Ry     beta= 0.70
     Davidson diagonalization with overlap
     ethr =  1.58E-07,  avg # of iterations =  2.8

     total cpu time spent up to now is      495.1 secs

     total energy              =   -1824.47432959 Ry
     estimated scf accuracy    <       0.00002636 Ry

     iteration #  6     ecut=    60.00 Ry     beta= 0.70
     Davidson diagonalization with overlap
     ethr =  6.59E-08,  avg # of iterations =  3.2

     total cpu time spent up to now is      500.4 secs

     total energy              =   -1824.47433378 Ry
     estimated scf accuracy    <       0.00000340 Ry

     iteration #  7     ecut=    60.00 Ry     beta= 0.70
     Davidson diagonalization with overlap
     ethr =  8.50E-09,  avg # of iterations =  5.5

     total cpu time spent up to now is      507.9 secs

     total energy              =   -1824.47433612 Ry
     estimated scf accuracy    <       0.00000031 Ry

     iteration #  8     ecut=    60.00 Ry     beta= 0.70
     Davidson diagonalization with overlap
     ethr =  7.71E-10,  avg # of iterations =  5.1

     total cpu time spent up to now is      515.6 secs

     total energy              =   -1824.47433632 Ry
     estimated scf accuracy    <       0.00000007 Ry

     iteration #  9     ecut=    60.00 Ry     beta= 0.70
     Davidson diagonalization with overlap
     ethr =  1.64E-10,  avg # of iterations =  3.8

     total cpu time spent up to now is      521.3 secs

     total energy              =   -1824.47433633 Ry
     estimated scf accuracy    <       0.00000007 Ry

     iteration # 10     ecut=    60.00 Ry     beta= 0.70
     Davidson diagonalization with overlap
     ethr =  1.64E-10,  avg # of iterations =  1.2

     total cpu time spent up to now is      525.6 secs

     total energy              =   -1824.47433634 Ry
     estimated scf accuracy    <       0.00000001 Ry

     iteration # 11     ecut=    60.00 Ry     beta= 0.70
     Davidson diagonalization with overlap
     ethr =  3.14E-11,  avg # of iterations =  4.2

     total cpu time spent up to now is      531.2 secs

     total energy              =   -1824.47433634 Ry
     estimated scf accuracy    <          2.7E-09 Ry

     iteration # 12     ecut=    60.00 Ry     beta= 0.70
     Davidson diagonalization with overlap
     ethr =  6.75E-12,  avg # of iterations =  4.1

     total cpu time spent up to now is      536.4 secs

     total energy              =   -1824.47433634 Ry
     estimated scf accuracy    <          1.4E-09 Ry

     iteration # 13     ecut=    60.00 Ry     beta= 0.70
     Davidson diagonalization with overlap
     ethr =  3.43E-12,  avg # of iterations =  2.2

     total cpu time spent up to now is      541.1 secs

     total energy              =   -1824.47433634 Ry
     estimated scf accuracy    <          9.1E-10 Ry

     iteration # 14     ecut=    60.00 Ry     beta= 0.70
     Davidson diagonalization with overlap
     ethr =  2.27E-12,  avg # of iterations =  3.8

     total cpu time spent up to now is      546.7 secs

     End of self-consistent calculation

          k = 0.0000 0.0000 0.0000 (  4219 PWs)   bands (ev):

   -10.1304  -9.7988  -8.2262  -8.2262  -8.1846  -8.1375  -8.0988  -8.0475
    -8.0475  -8.0397  -8.0121  -6.7242   0.8125   1.2500   3.7961   3.7961
     6.2199   6.2199   6.2627   7.6113   9.8369  12.9162  13.2553  13.2553

          k = 0.0000 0.0000 0.1561 (  4207 PWs)   bands (ev):

   -10.1245  -9.7945  -8.2147  -8.2147  -8.1736  -8.1454  -8.0926  -8.0612
    -8.0612  -8.0423  -8.0182  -6.7213   0.1215   2.1142   3.8419   3.8419
     6.2123   6.2123   6.2465   7.4931   9.6057  12.4870  12.4870  12.5863

          k = 0.0000 0.0000 0.3122 (  4200 PWs)   bands (ev):

   -10.1150  -9.7876  -8.1899  -8.1899  -8.1582  -8.1542  -8.0895  -8.0895
    -8.0797  -8.0482  -8.0312  -6.7166  -0.3674   2.9451   3.9189   3.9189
     6.1983   6.1983   6.2205   7.1638   9.4349  11.8505  11.8505  11.8525

          k = 0.0000 0.1939 0.0000 (  4183 PWs)   bands (ev):

   -10.0714  -9.8113  -8.2126  -8.2038  -8.1639  -8.1201  -8.1114  -8.0665
    -8.0503  -8.0239  -7.9281  -6.8348   0.6517   1.1805   3.9671   4.0156
     5.6762   5.9742   6.1524   7.6090  10.7216  11.5975  13.1587  13.4377

          k = 0.0000 0.1939 0.1561 (  4194 PWs)   bands (ev):

   -10.0689  -9.8090  -8.2085  -8.1933  -8.1553  -8.1254  -8.1151  -8.0728
    -8.0577  -8.0183  -7.9304  -6.8318   0.1732   1.7254   3.9343   4.0541
     5.7579   5.9686   6.1970   7.4972  10.4918  10.9974  12.7739  13.7118

          k = 0.0000 0.1939 0.3122 (  4191 PWs)   bands (ev):

   -10.0649  -9.8052  -8.1966  -8.1743  -8.1365  -8.1362  -8.1338  -8.0904
    -8.0464  -8.0227  -7.9332  -6.8270  -0.2237   2.2742   3.8135   4.1187
     5.8399   5.9580   6.4790   7.1787  10.2353  10.3423  12.2034  13.6357

          k = 0.0000 0.3877 0.0000 (  4200 PWs)   bands (ev):

    -9.9551  -9.8611  -8.1790  -8.1566  -8.1413  -8.1182  -8.1067  -8.0659
    -8.0545  -8.0456  -7.6223  -7.1751   0.5487   0.8477   4.5227   4.6000
     5.2729   5.3466   5.9590   6.8817  10.9212  11.1831  13.3362  13.9072

          k = 0.0000 0.3877 0.1561 (  4212 PWs)   bands (ev):

    -9.9576  -9.8628  -8.1899  -8.1567  -8.1527  -8.1216  -8.0964  -8.0632
    -8.0457  -8.0283  -7.6188  -7.1710   0.3961   0.9764   4.3086   4.6210
     5.1574   5.3501   6.2479   6.9597  10.6911  11.1441  13.5535  13.5559

          k = 0.0000 0.3877 0.3122 (  4218 PWs)   bands (ev):

    -9.9615  -9.8656  -8.2010  -8.1812  -8.1467  -8.1237  -8.0803  -8.0615
    -8.0237  -8.0152  -7.6126  -7.1644   0.2300   1.1083   4.0508   4.6560
     4.9798   5.3555   6.7044   6.9982  10.3795  11.0334  13.1956  14.1928

          k = 0.1939 0.1939 0.0000 (  4205 PWs)   bands (ev):

   -10.0240  -9.8204  -8.2074  -8.1703  -8.1473  -8.1139  -8.1079  -8.0721
    -8.0362  -8.0325  -7.8496  -6.9152   0.4390   1.0163   3.8641   4.6017
     5.3472   5.5544   6.5524   7.4926  11.1724  11.4535  12.2908  12.4001

          k = 0.1939 0.1939 0.1561 (  4205 PWs)   bands (ev):

   -10.0235  -9.8190  -8.1957  -8.1768  -8.1423  -8.1187  -8.0997  -8.0799
    -8.0499  -8.0301  -7.8374  -6.9101   0.1365   1.3509   3.6840   4.6476
     5.4842   5.6793   6.5547   7.3484  10.9316  11.1520  11.5135  13.5493

          k = 0.1939 0.1939 0.3122 (  4204 PWs)   bands (ev):

   -10.0227  -9.8167  -8.1856  -8.1667  -8.1322  -8.1275  -8.1059  -8.0801
    -8.0760  -8.0273  -7.8179  -6.9020  -0.1584   1.7342   3.4206   4.7398
     5.3549   6.2352   6.5585   7.0643  10.2106  10.8798  11.5952  14.2933

          k = 0.1939 0.3877 0.0000 (  4213 PWs)   bands (ev):

    -9.9328  -9.8594  -8.1642  -8.1401  -8.1269  -8.1167  -8.0927  -8.0581
    -8.0425  -8.0383  -7.5753  -7.1865   0.2515   0.5463   4.2730   4.9495
     5.3793   5.5366   6.4079   6.8228  10.5860  10.7811  12.8387  12.9344

          k = 0.1939 0.3877 0.1561 (  4203 PWs)   bands (ev):

    -9.9347  -9.8603  -8.1680  -8.1510  -8.1239  -8.1096  -8.0950  -8.0654
    -8.0414  -8.0323  -7.5588  -7.1758   0.1773   0.6362   3.9733   4.7664
     5.4575   5.8663   6.4147   6.7991  10.5781  10.8954  12.3470  13.2432

          k = 0.1939 0.3877 0.3122 (  4207 PWs)   bands (ev):

    -9.9377  -9.8617  -8.1784  -8.1594  -8.1276  -8.1061  -8.0838  -8.0655
    -8.0460  -8.0302  -7.5326  -7.1588   0.0892   0.7535   3.6409   4.5459
     5.5221   6.1848   6.4505   6.7596  10.5405  11.2622  12.0791  13.2943

          k = 0.3877 0.3877 0.0000 (  4199 PWs)   bands (ev):

    -9.8946  -9.8683  -8.1433  -8.1400  -8.0995  -8.0714  -8.0591  -8.0505
    -8.0289  -8.0209  -7.4374  -7.2688  -0.1439  -0.0067   4.5013   4.8297
     5.8614   6.3592   6.4909   6.7970   9.5460   9.6344  12.8326  13.0648

          k = 0.3877 0.3877 0.1561 (  4206 PWs)   bands (ev):

    -9.8952  -9.8682  -8.1391  -8.1319  -8.0989  -8.0725  -8.0705  -8.0581
    -8.0391  -8.0389  -7.4073  -7.2450  -0.1392   0.0375   4.2348   4.6825
     5.9308   6.3343   6.4009   6.7968   9.9271   9.9809  12.6458  13.1429

          k = 0.3877 0.3877 0.3122 (  4186 PWs)   bands (ev):

    -9.8961  -9.8680  -8.1400  -8.1137  -8.0973  -8.0799  -8.0790  -8.0737
    -8.0618  -8.0551  -7.3622  -7.2085  -0.1267   0.1072   3.9067   4.4780
     5.8300   6.1754   6.4470   6.7967  10.8401  11.0134  11.9936  13.0244

     the Fermi energy is     8.5275 ev

!    total energy              =   -1824.47433634 Ry
     total all-electron energy =    -83829.225053 Ry
     estimated scf accuracy    <          1.2E-10 Ry
     smearing contrib. (-TS)   =       0.00000000 Ry
     internal energy E=F+TS    =   -1824.47433634 Ry

     The total energy is F=E-TS. E is the sum of the following terms:
     one-electron contribution =    -113.61033487 Ry
     hartree contribution      =      88.53594293 Ry
     xc contribution           =    -103.58557131 Ry
     ewald contribution        =    -219.86527998 Ry
     one-center paw contrib.   =   -1475.94909310 Ry

     convergence has been achieved in  14 iterations

     Forces acting on atoms (cartesian axes, Ry/au):

     atom    1 type  1   force =     0.00000000    0.00000000   -0.00269280
     atom    2 type  1   force =     0.00000000    0.00000000    0.00269280
     atom    3 type  2   force =     0.00000000    0.00000000    0.00000000
     atom    4 type  2   force =     0.00000000    0.00000000    0.00000000

     Total force =     0.003808     Total SCF correction =     0.000010


     Computing stress (Cartesian axis) and pressure

          total   stress  (Ry/bohr**3)                   (kbar)     P=       -1.58
  -0.00003408   0.00000000   0.00000000           -5.01        0.00        0.00
   0.00000000  -0.00003408   0.00000000            0.00       -5.01        0.00
   0.00000000   0.00000000   0.00003598            0.00        0.00        5.29

     Energy error            =      2.5E-04 Ry
     Gradient error          =      2.7E-03 Ry/Bohr
     Cell gradient error     =      5.3E+00 kbar

     number of scf cycles    =   6
     number of bfgs steps    =   5

     enthalpy           old  =   -1824.4740865219 Ry
     enthalpy           new  =   -1824.4743363400 Ry

     CASE: enthalpy          _new < enthalpy          _old

     new trust radius        =       0.0128651863 bohr
     new conv_thr            =       0.0000000002 Ry

     new unit-cell volume =    578.28607 a.u.^3 (    85.69315 Ang^3 )
     density =      8.65018 g/cm^3

CELL_PARAMETERS (alat=  7.51052751)
   1.031132959   0.000000000   0.000000000
   0.000000000   1.031132959   0.000000000
   0.000000000   0.000000000   1.283813892

ATOMIC_POSITIONS (crystal)
Pb               0.0000000000        0.5000000000        0.2295961931
Pb               0.5000000000        0.0000000000        0.7704038069
O                0.0000000000        0.0000000000        0.0000000000
O                0.5000000000        0.5000000000        0.0000000000



     Writing config-only to output data dir ./FeAl.save/ :
     XML data file
     NEW-OLD atomic charge density approx. for the potential
     New effective cutoffs (rho, wfc):  231.21   58.09

     Check: negative core charge=   -0.000008

     total cpu time spent up to now is      553.0 secs

     Self-consistent Calculation

     iteration #  1     ecut=    60.00 Ry     beta= 0.70
     Davidson diagonalization with overlap
     ethr =  1.00E-06,  avg # of iterations =  6.8

     Threshold (ethr) on eigenvalues was too large:
     Diagonalizing with lowered threshold

     Davidson diagonalization with overlap
     ethr =  6.05E-08,  avg # of iterations =  3.7

     total cpu time spent up to now is      568.1 secs

     total energy              =   -1824.47441396 Ry
     estimated scf accuracy    <       0.00002347 Ry

     iteration #  2     ecut=    60.00 Ry     beta= 0.70
     Davidson diagonalization with overlap
     ethr =  5.87E-08,  avg # of iterations =  4.8

     total cpu time spent up to now is      575.4 secs

     total energy              =   -1824.47442332 Ry
     estimated scf accuracy    <       0.00001939 Ry

     iteration #  3     ecut=    60.00 Ry     beta= 0.70
     Davidson diagonalization with overlap
     ethr =  4.85E-08,  avg # of iterations =  2.5

     total cpu time spent up to now is      580.7 secs

     total energy              =   -1824.47442843 Ry
     estimated scf accuracy    <       0.00000582 Ry

     iteration #  4     ecut=    60.00 Ry     beta= 0.70
     Davidson diagonalization with overlap
     ethr =  1.46E-08,  avg # of iterations =  4.1

     total cpu time spent up to now is      586.3 secs

     total energy              =   -1824.47443055 Ry
     estimated scf accuracy    <       0.00000174 Ry

     iteration #  5     ecut=    60.00 Ry     beta= 0.70
     Davidson diagonalization with overlap
     ethr =  4.36E-09,  avg # of iterations =  3.9

     total cpu time spent up to now is      591.6 secs

     total energy              =   -1824.47443109 Ry
     estimated scf accuracy    <       0.00000078 Ry

     iteration #  6     ecut=    60.00 Ry     beta= 0.70
     Davidson diagonalization with overlap
     ethr =  1.96E-09,  avg # of iterations =  3.3

     total cpu time spent up to now is      597.2 secs

     total energy              =   -1824.47443122 Ry
     estimated scf accuracy    <       0.00000006 Ry

     iteration #  7     ecut=    60.00 Ry     beta= 0.70
     Davidson diagonalization with overlap
     ethr =  1.41E-10,  avg # of iterations =  6.6

     total cpu time spent up to now is      606.5 secs

     total energy              =   -1824.47443132 Ry
     estimated scf accuracy    <       0.00000014 Ry

     iteration #  8     ecut=    60.00 Ry     beta= 0.70
     Davidson diagonalization with overlap
     ethr =  1.41E-10,  avg # of iterations =  1.8

     total cpu time spent up to now is      611.2 secs

     total energy              =   -1824.47443133 Ry
     estimated scf accuracy    <       0.00000004 Ry

     iteration #  9     ecut=    60.00 Ry     beta= 0.70
     Davidson diagonalization with overlap
     ethr =  1.03E-10,  avg # of iterations =  2.9

     total cpu time spent up to now is      616.3 secs

     total energy              =   -1824.47443133 Ry
     estimated scf accuracy    <          3.9E-10 Ry

     iteration # 10     ecut=    60.00 Ry     beta= 0.70
     Davidson diagonalization with overlap
     ethr =  9.64E-13,  avg # of iterations = 11.4

     total cpu time spent up to now is      633.3 secs

     total energy              =   -1824.47443134 Ry
     estimated scf accuracy    <          6.2E-09 Ry

     iteration # 11     ecut=    60.00 Ry     beta= 0.70
     Davidson diagonalization with overlap
     ethr =  9.64E-13,  avg # of iterations =  1.0

     total cpu time spent up to now is      637.6 secs

     total energy              =   -1824.47443133 Ry
     estimated scf accuracy    <          5.3E-09 Ry

     iteration # 12     ecut=    60.00 Ry     beta= 0.70
     Davidson diagonalization with overlap
     ethr =  9.64E-13,  avg # of iterations =  6.0

     total cpu time spent up to now is      647.2 secs

     End of self-consistent calculation

          k = 0.0000 0.0000 0.0000 (  4219 PWs)   bands (ev):

   -10.1667  -9.8292  -8.2329  -8.2329  -8.1905  -8.1433  -8.1034  -8.0533
    -8.0533  -8.0439  -8.0161  -6.7222   0.7926   1.2697   3.7647   3.7647
     6.1905   6.1905   6.2446   7.6049   9.8152  12.8692  13.2816  13.2816

          k = 0.0000 0.0000 0.1558 (  4207 PWs)   bands (ev):

   -10.1610  -9.8251  -8.2217  -8.2217  -8.1799  -8.1509  -8.0975  -8.0666
    -8.0666  -8.0463  -8.0220  -6.7194   0.1216   2.1132   3.8092   3.8092
     6.1831   6.1831   6.2287   7.4862   9.5842  12.5078  12.5078  12.5628

          k = 0.0000 0.0000 0.3116 (  4200 PWs)   bands (ev):

   -10.1518  -9.8185  -8.1977  -8.1977  -8.1632  -8.1612  -8.0940  -8.0940
    -8.0852  -8.0517  -8.0344  -6.7149  -0.3627   2.9374   3.8841   3.8841
     6.1694   6.1694   6.2034   7.1573   9.4113  11.8523  11.8743  11.8743

          k = 0.0000 0.1940 0.0000 (  4183 PWs)   bands (ev):

   -10.1067  -9.8417  -8.2196  -8.2100  -8.1698  -8.1257  -8.1174  -8.0716
    -8.0547  -8.0277  -7.9330  -6.8342   0.6319   1.1928   3.9361   3.9845
     5.6547   5.9447   6.1313   7.6059  10.7042  11.6069  13.1384  13.4632

          k = 0.0000 0.1940 0.1558 (  4194 PWs)   bands (ev):

   -10.1043  -9.8395  -8.2155  -8.1998  -8.1613  -8.1308  -8.1214  -8.0779
    -8.0614  -8.0226  -7.9350  -6.8313   0.1687   1.7216   3.9023   4.0219
     5.7388   5.9392   6.1756   7.4928  10.4735  11.0041  12.7948  13.6945

          k = 0.0000 0.1940 0.3116 (  4191 PWs)   bands (ev):

   -10.1004  -9.8359  -8.2039  -8.1815  -8.1428  -8.1418  -8.1392  -8.0951
    -8.0507  -8.0267  -7.9373  -6.8266  -0.2228   2.2632   3.7814   4.0846
     5.8230   5.9288   6.4577   7.1715  10.2222  10.3455  12.2268  13.6344

          k = 0.0000 0.3879 0.0000 (  4200 PWs)   bands (ev):

    -9.9881  -9.8922  -8.1865  -8.1619  -8.1488  -8.1232  -8.1122  -8.0710
    -8.0576  -8.0488  -7.6271  -7.1776   0.5318   0.8421   4.4951   4.5694
     5.2534   5.3166   5.9469   6.8815  10.9212  11.1767  13.3072  13.9288

          k = 0.0000 0.3879 0.1558 (  4212 PWs)   bands (ev):

    -9.9904  -9.8939  -8.1969  -8.1636  -8.1582  -8.1267  -8.1019  -8.0683
    -8.0491  -8.0323  -7.6236  -7.1736   0.3847   0.9662   4.2833   4.5898
     5.1387   5.3200   6.2355   6.9565  10.6888  11.1368  13.5334  13.5736

          k = 0.0000 0.3879 0.3116 (  4218 PWs)   bands (ev):

    -9.9941  -9.8965  -8.2075  -8.1872  -8.1527  -8.1288  -8.0862  -8.0666
    -8.0280  -8.0196  -7.6174  -7.1671   0.2223   1.0958   4.0275   4.6237
     4.9629   5.3251   6.6926   6.9913  10.3764  11.0241  13.2174  14.1740

          k = 0.1940 0.1940 0.0000 (  4205 PWs)   bands (ev):

   -10.0583  -9.8507  -8.2136  -8.1769  -8.1532  -8.1199  -8.1129  -8.0775
    -8.0416  -8.0361  -7.8540  -6.9155   0.4178   1.0200   3.8319   4.5735
     5.3302   5.5302   6.5274   7.4911  11.1631  11.4746  12.2953  12.3803

          k = 0.1940 0.1940 0.1558 (  4205 PWs)   bands (ev):

   -10.0577  -9.8494  -8.2020  -8.1834  -8.1481  -8.1245  -8.1053  -8.0850
    -8.0550  -8.0338  -7.8420  -6.9106   0.1264   1.3431   3.6531   4.6185
     5.4616   5.6612   6.5297   7.3467  10.9285  11.1412  11.5339  13.5382

          k = 0.1940 0.1940 0.3116 (  4204 PWs)   bands (ev):

   -10.0569  -9.8472  -8.1920  -8.1737  -8.1379  -8.1336  -8.1118  -8.0850
    -8.0802  -8.0310  -7.8228  -6.9028  -0.1628   1.7190   3.3917   4.7081
     5.3357   6.2180   6.5333   7.0592  10.2155  10.8635  11.6149  14.2884

          k = 0.1940 0.3879 0.0000 (  4213 PWs)   bands (ev):

    -9.9648  -9.8899  -8.1706  -8.1459  -8.1334  -8.1217  -8.0985  -8.0634
    -8.0459  -8.0426  -7.5798  -7.1893   0.2308   0.5338   4.2428   4.9228
     5.3553   5.5304   6.3841   6.8209  10.5966  10.7820  12.8467  12.9254

          k = 0.1940 0.3879 0.1558 (  4203 PWs)   bands (ev):

    -9.9666  -9.8907  -8.1743  -8.1566  -8.1303  -8.1149  -8.1004  -8.0701
    -8.0457  -8.0365  -7.5638  -7.1789   0.1598   0.6205   3.9492   4.7450
     5.4302   5.8527   6.3931   6.7965  10.5807  10.9006  12.3473  13.2457

          k = 0.1940 0.3879 0.3116 (  4207 PWs)   bands (ev):

    -9.9695  -9.8921  -8.1843  -8.1650  -8.1339  -8.1114  -8.0893  -8.0705
    -8.0504  -8.0344  -7.5382  -7.1624   0.0745   0.7348   3.6208   4.5290
     5.4929   6.1621   6.4391   6.7544  10.5363  11.2591  12.0905  13.3043

          k = 0.3879 0.3879 0.0000 (  4199 PWs)   bands (ev):

    -9.9249  -9.8980  -8.1485  -8.1448  -8.1051  -8.0771  -8.0649  -8.0558
    -8.0333  -8.0261  -7.4419  -7.2726  -0.1687  -0.0289   4.4733   4.8035
     5.8592   6.3355   6.4883   6.7721   9.5647   9.6473  12.8369  13.0698

          k = 0.3879 0.3879 0.1558 (  4206 PWs)   bands (ev):

    -9.9255  -9.8979  -8.1444  -8.1369  -8.1044  -8.0782  -8.0758  -8.0633
    -8.0437  -8.0433  -7.4127  -7.2495  -0.1639   0.0138   4.2140   4.6606
     5.9267   6.3335   6.3758   6.7719   9.9374   9.9959  12.6428  13.1448

          k = 0.3879 0.3879 0.3116 (  4186 PWs)   bands (ev):

    -9.9263  -9.8977  -8.1450  -8.1190  -8.1019  -8.0849  -8.0849  -8.0787
    -8.0664  -8.0592  -7.3687  -7.2140  -0.1515   0.0814   3.8922   4.4613
     5.8318   6.1744   6.4207   6.7719  10.8410  11.0244  11.9897  13.0083

     the Fermi energy is     8.5148 ev

!    total energy              =   -1824.47443133 Ry
     total all-electron energy =    -83829.225147 Ry
     estimated scf accuracy    <          1.3E-10 Ry
     smearing contrib. (-TS)   =       0.00000000 Ry
     internal energy E=F+TS    =   -1824.47443133 Ry

     The total energy is F=E-TS. E is the sum of the following terms:
     one-electron contribution =    -114.58059352 Ry
     hartree contribution      =      89.00699941 Ry
     xc contribution           =    -103.59264936 Ry
     ewald contribution        =    -219.35875283 Ry
     one-center paw contrib.   =   -1475.94943504 Ry

     convergence has been achieved in  12 iterations

     Forces acting on atoms (cartesian axes, Ry/au):

     atom    1 type  1   force =     0.00000000    0.00000000    0.00034294
     atom    2 type  1   force =     0.00000000    0.00000000   -0.00034294
     atom    3 type  2   force =     0.00000000    0.00000000    0.00000000
     atom    4 type  2   force =     0.00000000    0.00000000    0.00000000

     Total force =     0.000485     Total SCF correction =     0.000006


     Computing stress (Cartesian axis) and pressure

          total   stress  (Ry/bohr**3)                   (kbar)     P=        1.03
  -0.00001721   0.00000000   0.00000000           -2.53        0.00        0.00
   0.00000000  -0.00001721   0.00000000            0.00       -2.53        0.00
   0.00000000   0.00000000   0.00005545            0.00        0.00        8.16

     Energy error            =      9.5E-05 Ry
     Gradient error          =      3.4E-04 Ry/Bohr
     Cell gradient error     =      8.2E+00 kbar

     number of scf cycles    =   7
     number of bfgs steps    =   6

     enthalpy           old  =   -1824.4743363400 Ry
     enthalpy           new  =   -1824.4744313316 Ry

     CASE: enthalpy          _new < enthalpy          _old

     new trust radius        =       0.0207388515 bohr
     new conv_thr            =            1.0E-10 Ry

     new unit-cell volume =    579.09525 a.u.^3 (    85.81306 Ang^3 )
     density =      8.63809 g/cm^3

CELL_PARAMETERS (alat=  7.51052751)
   1.029636595   0.000000000   0.000000000
   0.000000000   1.029636595   0.000000000
   0.000000000   0.000000000   1.289349756

ATOMIC_POSITIONS (crystal)
Pb               0.0000000000        0.5000000000        0.2281841274
Pb               0.5000000000        0.0000000000        0.7718158726
O                0.0000000000        0.0000000000        0.0000000000
O                0.5000000000        0.5000000000        0.0000000000



     Writing config-only to output data dir ./FeAl.save/ :
     XML data file
     NEW-OLD atomic charge density approx. for the potential
     New effective cutoffs (rho, wfc):  229.31   57.60

     Check: negative core charge=   -0.000008

     total cpu time spent up to now is      653.5 secs

     Self-consistent Calculation

     iteration #  1     ecut=    60.00 Ry     beta= 0.70
     Davidson diagonalization with overlap
     ethr =  1.00E-06,  avg # of iterations =  7.3

     Threshold (ethr) on eigenvalues was too large:
     Diagonalizing with lowered threshold

     Davidson diagonalization with overlap
     ethr =  9.76E-08,  avg # of iterations =  3.4

     total cpu time spent up to now is      669.5 secs

     total energy              =   -1824.47452411 Ry
     estimated scf accuracy    <       0.00003994 Ry

     iteration #  2     ecut=    60.00 Ry     beta= 0.70
     Davidson diagonalization with overlap
     ethr =  9.98E-08,  avg # of iterations =  5.2

     total cpu time spent up to now is      677.3 secs

     total energy              =   -1824.47454347 Ry
     estimated scf accuracy    <       0.00003305 Ry

     iteration #  3     ecut=    60.00 Ry     beta= 0.70
     Davidson diagonalization with overlap
     ethr =  8.26E-08,  avg # of iterations =  2.1

     total cpu time spent up to now is      682.3 secs

     total energy              =   -1824.47455020 Ry
     estimated scf accuracy    <       0.00000911 Ry

     iteration #  4     ecut=    60.00 Ry     beta= 0.70
     Davidson diagonalization with overlap
     ethr =  2.28E-08,  avg # of iterations =  3.1

     total cpu time spent up to now is      687.5 secs

     total energy              =   -1824.47455314 Ry
     estimated scf accuracy    <       0.00000309 Ry

     iteration #  5     ecut=    60.00 Ry     beta= 0.70
     Davidson diagonalization with overlap
     ethr =  7.73E-09,  avg # of iterations =  4.1

     total cpu time spent up to now is      692.7 secs

     total energy              =   -1824.47455378 Ry
     estimated scf accuracy    <       0.00000093 Ry

     iteration #  6     ecut=    60.00 Ry     beta= 0.70
     Davidson diagonalization with overlap
     ethr =  2.33E-09,  avg # of iterations =  4.5

     total cpu time spent up to now is      698.7 secs

     total energy              =   -1824.47455407 Ry
     estimated scf accuracy    <       0.00000003 Ry

     iteration #  7     ecut=    60.00 Ry     beta= 0.70
     Davidson diagonalization with overlap
     ethr =  7.60E-11,  avg # of iterations =  7.0

     total cpu time spent up to now is      708.9 secs

     total energy              =   -1824.47455412 Ry
     estimated scf accuracy    <          4.4E-09 Ry

     iteration #  8     ecut=    60.00 Ry     beta= 0.70
     Davidson diagonalization with overlap
     ethr =  1.09E-11,  avg # of iterations =  5.1

     total cpu time spent up to now is      714.9 secs

     total energy              =   -1824.47455412 Ry
     estimated scf accuracy    <          3.0E-10 Ry

     iteration #  9     ecut=    60.00 Ry     beta= 0.70
     Davidson diagonalization with overlap
     ethr =  7.55E-13,  avg # of iterations =  6.7

     total cpu time spent up to now is      724.0 secs

     End of self-consistent calculation

          k = 0.0000 0.0000 0.0000 (  4219 PWs)   bands (ev):

   -10.2120  -9.8635  -8.2425  -8.2425  -8.1989  -8.1540  -8.1111  -8.0619
    -8.0619  -8.0516  -8.0239  -6.7237   0.7553   1.2867   3.7318   3.7318
     6.1638   6.1638   6.2208   7.6032   9.7904  12.8112  13.3118  13.3118

          k = 0.0000 0.0000 0.1551 (  4207 PWs)   bands (ev):

   -10.2066  -9.8597  -8.2316  -8.2316  -8.1888  -8.1612  -8.1054  -8.0749
    -8.0749  -8.0539  -8.0296  -6.7209   0.1102   2.1048   3.7744   3.7744
     6.1565   6.1565   6.2056   7.4769   9.5653  12.5304  12.5304  12.5399

          k = 0.0000 0.0000 0.3102 (  4200 PWs)   bands (ev):

   -10.1978  -9.8535  -8.2085  -8.2085  -8.1729  -8.1711  -8.1012  -8.1012
    -8.0939  -8.0587  -8.0411  -6.7166  -0.3674   2.9234   3.8461   3.8461
     6.1431   6.1431   6.1815   7.1366   9.3982  11.8655  11.9020  11.9020

          k = 0.0000 0.1942 0.0000 (  4183 PWs)   bands (ev):

   -10.1508  -9.8768  -8.2295  -8.2192  -8.1780  -8.1359  -8.1265  -8.0795
    -8.0621  -8.0353  -7.9410  -6.8364   0.5993   1.2039   3.8990   3.9520
     5.6277   5.9171   6.1053   7.6025  10.6849  11.6171  13.1047  13.4933

          k = 0.0000 0.1942 0.1551 (  4194 PWs)   bands (ev):

   -10.1484  -9.8747  -8.2254  -8.2095  -8.1698  -8.1407  -8.1308  -8.0857
    -8.0681  -8.0304  -7.9427  -6.8336   0.1544   1.7147   3.8651   3.9878
     5.7130   5.9116   6.1498   7.4849  10.4574  11.0126  12.8185  13.6729

          k = 0.0000 0.1942 0.3102 (  4191 PWs)   bands (ev):

   -10.1446  -9.8714  -8.2141  -8.1922  -8.1520  -8.1502  -8.1487  -8.1024
    -8.0583  -8.0342  -7.9446  -6.8291  -0.2305   2.2494   3.7458   4.0478
     5.8002   5.9014   6.4316   7.1536  10.2142  10.3567  12.2548  13.6343

          k = 0.0000 0.3885 0.0000 (  4200 PWs)   bands (ev):

   -10.0290  -9.9296  -8.1971  -8.1706  -8.1595  -8.1320  -8.1199  -8.0787
    -8.0639  -8.0556  -7.6343  -7.1823   0.5092   0.8356   4.4570   4.5382
     5.2235   5.2873   5.9267   6.8734  10.9166  11.1610  13.2753  13.9554

          k = 0.0000 0.3885 0.1551 (  4212 PWs)   bands (ev):

   -10.0311  -9.9311  -8.2068  -8.1735  -8.1674  -8.1354  -8.1099  -8.0760
    -8.0559  -8.0399  -7.6309  -7.1784   0.3677   0.9542   4.2507   4.5577
     5.1120   5.2904   6.2134   6.9455  10.6816  11.1224  13.5085  13.5983

          k = 0.0000 0.3885 0.3102 (  4218 PWs)   bands (ev):

   -10.0346  -9.9337  -8.2169  -8.1960  -8.1624  -8.1377  -8.0945  -8.0743
    -8.0359  -8.0277  -7.6248  -7.1722   0.2087   1.0804   4.0001   4.5899
     4.9411   5.2950   6.6720   6.9754  10.3682  11.0110  13.2453  14.1488

          k = 0.1942 0.1942 0.0000 (  4205 PWs)   bands (ev):

   -10.1012  -9.8863  -8.2227  -8.1869  -8.1613  -8.1300  -8.1212  -8.0854
    -8.0500  -8.0434  -7.8610  -6.9181   0.3876   1.0238   3.7896   4.5448
     5.3070   5.4989   6.5032   7.4863  11.1469  11.4940  12.3025  12.3563

          k = 0.1942 0.1942 0.1551 (  4205 PWs)   bands (ev):

   -10.1006  -9.8850  -8.2113  -8.1931  -8.1563  -8.1346  -8.1143  -8.0925
    -8.0630  -8.0410  -7.8494  -6.9134   0.1082   1.3344   3.6149   4.5884
     5.4327   5.6346   6.5054   7.3401  10.9240  11.1340  11.5523  13.5241

          k = 0.1942 0.1942 0.3102 (  4204 PWs)   bands (ev):

   -10.0998  -9.8829  -8.2016  -8.1840  -8.1475  -8.1422  -8.1204  -8.0929
    -8.0873  -8.0384  -7.8307  -6.9059  -0.1749   1.7025   3.3582   4.6744
     5.3117   6.1932   6.5088   7.0441  10.2259  10.8523  11.6324  14.2807

          k = 0.1942 0.3885 0.0000 (  4213 PWs)   bands (ev):

   -10.0048  -9.9271  -8.1800  -8.1549  -8.1433  -8.1300  -8.1067  -8.0714
    -8.0528  -8.0500  -7.5861  -7.1936   0.2060   0.5209   4.2005   4.8864
     5.3307   5.5158   6.3592   6.8113  10.6024  10.7724  12.8552  12.9208

          k = 0.1942 0.3885 0.1551 (  4203 PWs)   bands (ev):

   -10.0064  -9.9278  -8.1836  -8.1656  -8.1402  -8.1235  -8.1080  -8.0777
    -8.0532  -8.0441  -7.5706  -7.1836   0.1379   0.6036   3.9162   4.7158
     5.4018   5.8310   6.3696   6.7866  10.5771  10.8977  12.3506  13.2554

          k = 0.1942 0.3885 0.3102 (  4207 PWs)   bands (ev):

   -10.0092  -9.9291  -8.1932  -8.1735  -8.1437  -8.1201  -8.0973  -8.0783
    -8.0581  -8.0421  -7.5458  -7.1677   0.0546   0.7139   3.5949   4.5062
     5.4629   6.1363   6.4235   6.7411  10.5270  11.2487  12.1026  13.3192

          k = 0.3885 0.3885 0.0000 (  4199 PWs)   bands (ev):

    -9.9632  -9.9352  -8.1570  -8.1531  -8.1138  -8.0861  -8.0734  -8.0636
    -8.0409  -8.0344  -7.4468  -7.2766  -0.1962  -0.0522   4.4320   4.7655
     5.8465   6.3130   6.4756   6.7485   9.5815   9.6553  12.8321  13.0701

          k = 0.3885 0.3885 0.1551 (  4206 PWs)   bands (ev):

    -9.9637  -9.9351  -8.1531  -8.1453  -8.1129  -8.0873  -8.0837  -8.0711
    -8.0515  -8.0507  -7.4186  -7.2543  -0.1916  -0.0117   4.1824   4.6285
     5.9129   6.3247   6.3514   6.7483   9.9422  10.0069  12.6352  13.1490

          k = 0.3885 0.3885 0.3102 (  4186 PWs)   bands (ev):

    -9.9644  -9.9348  -8.1535  -8.1280  -8.1095  -8.0940  -8.0923  -8.0860
    -8.0742  -8.0665  -7.3762  -7.2202  -0.1802   0.0527   3.8700   4.4363
     5.8283   6.1672   6.3951   6.7483  10.8341  11.0278  11.9791  12.9776

     the Fermi energy is     8.4977 ev

!    total energy              =   -1824.47455412 Ry
     total all-electron energy =    -83829.225270 Ry
     estimated scf accuracy    <          7.2E-12 Ry
     smearing contrib. (-TS)   =       0.00000000 Ry
     internal energy E=F+TS    =   -1824.47455412 Ry

     The total energy is F=E-TS. E is the sum of the following terms:
     one-electron contribution =    -115.88751612 Ry
     hartree contribution      =      89.64118999 Ry
     xc contribution           =    -103.60078409 Ry
     ewald contribution        =    -218.67762032 Ry
     one-center paw contrib.   =   -1475.94982357 Ry

     convergence has been achieved in   9 iterations

     Forces acting on atoms (cartesian axes, Ry/au):

     atom    1 type  1   force =     0.00000000    0.00000000    0.00309546
     atom    2 type  1   force =     0.00000000    0.00000000   -0.00309546
     atom    3 type  2   force =     0.00000000    0.00000000    0.00000000
     atom    4 type  2   force =     0.00000000    0.00000000    0.00000000

     Total force =     0.004378     Total SCF correction =     0.000004


     Computing stress (Cartesian axis) and pressure

          total   stress  (Ry/bohr**3)                   (kbar)     P=        3.94
   0.00000421   0.00000000   0.00000000            0.62        0.00        0.00
   0.00000000   0.00000421   0.00000000            0.00        0.62        0.00
   0.00000000   0.00000000   0.00007199            0.00        0.00       10.59

     Energy error            =      1.2E-04 Ry
     Gradient error          =      3.1E-03 Ry/Bohr
     Cell gradient error     =      1.1E+01 kbar

     number of scf cycles    =   8
     number of bfgs steps    =   7

     enthalpy           old  =   -1824.4744313316 Ry
     enthalpy           new  =   -1824.4745541209 Ry

     CASE: enthalpy          _new < enthalpy          _old

     new trust radius        =       0.0309963764 bohr
     new conv_thr            =       0.0000000001 Ry

     new unit-cell volume =    580.86321 a.u.^3 (    86.07505 Ang^3 )
     density =      8.61180 g/cm^3

CELL_PARAMETERS (alat=  7.51052751)
   1.027902434   0.000000000   0.000000000
   0.000000000   1.027902434   0.000000000
   0.000000000   0.000000000   1.297653552

ATOMIC_POSITIONS (crystal)
Pb               0.0000000000        0.5000000000        0.2268041531
Pb               0.5000000000        0.0000000000        0.7731958469
O                0.0000000000        0.0000000000        0.0000000000
O                0.5000000000        0.5000000000        0.0000000000



     Writing config-only to output data dir ./FeAl.save/ :
     XML data file
     NEW-OLD atomic charge density approx. for the potential
     New effective cutoffs (rho, wfc):  227.08   56.88

     Check: negative core charge=   -0.000008

     total cpu time spent up to now is      730.3 secs

     Self-consistent Calculation

     iteration #  1     ecut=    60.00 Ry     beta= 0.70
     Davidson diagonalization with overlap
     ethr =  1.00E-06,  avg # of iterations =  8.1

     total cpu time spent up to now is      742.4 secs

     total energy              =   -1824.47460880 Ry
     estimated scf accuracy    <       0.00011867 Ry

     iteration #  2     ecut=    60.00 Ry     beta= 0.70
     Davidson diagonalization with overlap
     ethr =  2.97E-07,  avg # of iterations =  5.1

     total cpu time spent up to now is      750.8 secs

     total energy              =   -1824.47467372 Ry
     estimated scf accuracy    <       0.00014485 Ry

     iteration #  3     ecut=    60.00 Ry     beta= 0.70
     Davidson diagonalization with overlap
     ethr =  2.97E-07,  avg # of iterations =  2.1

     total cpu time spent up to now is      755.9 secs

     total energy              =   -1824.47469699 Ry
     estimated scf accuracy    <       0.00003406 Ry

     iteration #  4     ecut=    60.00 Ry     beta= 0.70
     Davidson diagonalization with overlap
     ethr =  8.51E-08,  avg # of iterations =  1.6

     total cpu time spent up to now is      760.4 secs

     total energy              =   -1824.47470345 Ry
     estimated scf accuracy    <       0.00001363 Ry

     iteration #  5     ecut=    60.00 Ry     beta= 0.70
     Davidson diagonalization with overlap
     ethr =  3.41E-08,  avg # of iterations =  1.7

     total cpu time spent up to now is      765.1 secs

     total energy              =   -1824.47470484 Ry
     estimated scf accuracy    <       0.00000428 Ry

     iteration #  6     ecut=    60.00 Ry     beta= 0.70
     Davidson diagonalization with overlap
     ethr =  1.07E-08,  avg # of iterations =  3.8

     total cpu time spent up to now is      770.4 secs

     total energy              =   -1824.47470580 Ry
     estimated scf accuracy    <       0.00000057 Ry

     iteration #  7     ecut=    60.00 Ry     beta= 0.70
     Davidson diagonalization with overlap
     ethr =  1.43E-09,  avg # of iterations =  5.1

     total cpu time spent up to now is      777.8 secs

     total energy              =   -1824.47470610 Ry
     estimated scf accuracy    <       0.00000001 Ry

     iteration #  8     ecut=    60.00 Ry     beta= 0.70
     Davidson diagonalization with overlap
     ethr =  3.68E-11,  avg # of iterations =  8.3

     total cpu time spent up to now is      788.9 secs

     total energy              =   -1824.47470614 Ry
     estimated scf accuracy    <          2.7E-09 Ry

     iteration #  9     ecut=    60.00 Ry     beta= 0.70
     Davidson diagonalization with overlap
     ethr =  6.80E-12,  avg # of iterations =  4.1

     total cpu time spent up to now is      795.2 secs

     total energy              =   -1824.47470614 Ry
     estimated scf accuracy    <          2.6E-10 Ry

     iteration # 10     ecut=    60.00 Ry     beta= 0.70
     Davidson diagonalization with overlap
     ethr =  6.51E-13,  avg # of iterations =  5.7

     total cpu time spent up to now is      802.2 secs

     total energy              =   -1824.47470614 Ry
     estimated scf accuracy    <          1.2E-10 Ry

     iteration # 11     ecut=    60.00 Ry     beta= 0.70
     Davidson diagonalization with overlap
     ethr =  3.08E-13,  avg # of iterations =  3.3

     total cpu time spent up to now is      807.3 secs

     End of self-consistent calculation

          k = 0.0000 0.0000 0.0000 (  4219 PWs)   bands (ev):

   -10.2693  -9.9099  -8.2721  -8.2721  -8.2273  -8.1864  -8.1397  -8.0915
    -8.0915  -8.0809  -8.0537  -6.7489   0.6905   1.2816   3.6890   3.6890
     6.1270   6.1270   6.1793   7.5845   9.7424  12.7249  13.3194  13.3194

          k = 0.0000 0.0000 0.1541 (  4207 PWs)   bands (ev):

   -10.2642  -9.9064  -8.2615  -8.2615  -8.2179  -8.1931  -8.1344  -8.1040
    -8.1040  -8.0830  -8.0590  -6.7463   0.0754   2.0702   3.7294   3.7294
     6.1198   6.1198   6.1652   7.4463   9.5287  12.4939  12.5303  12.5303

          k = 0.0000 0.0000 0.3082 (  4200 PWs)   bands (ev):

   -10.2560  -9.9006  -8.2396  -8.2396  -8.2041  -8.2014  -8.1290  -8.1290
    -8.1238  -8.0874  -8.0696  -6.7421  -0.3929   2.8804   3.7971   3.7971
     6.1068   6.1068   6.1427   7.0889   9.3742  11.8646  11.9097  11.9097

          k = 0.0000 0.1946 0.0000 (  4183 PWs)   bands (ev):

   -10.2072  -9.9242  -8.2594  -8.2488  -8.2062  -8.1678  -8.1565  -8.1084
    -8.0906  -8.0646  -7.9701  -6.8617   0.5432   1.1947   3.8485   3.9095
     5.5851   5.8794   6.0631   7.5783  10.6417  11.6064  13.0380  13.5010

          k = 0.0000 0.1946 0.1541 (  4194 PWs)   bands (ev):

   -10.2050  -9.9223  -8.2553  -8.2396  -8.1985  -8.1723  -8.1609  -8.1145
    -8.0960  -8.0601  -7.9716  -6.8590   0.1182   1.6866   3.8151   3.9434
     5.6700   5.8739   6.1078   7.4547  10.4217  11.0016  12.8198  13.6177

          k = 0.0000 0.1946 0.3082 (  4191 PWs)   bands (ev):

   -10.2014  -9.9192  -8.2445  -8.2233  -8.1818  -8.1795  -8.1790  -8.1306
    -8.0873  -8.0635  -7.9731  -6.8547  -0.2584   2.2130   3.6988   4.0001
     5.7601   5.8638   6.3879   7.1104  10.1903  10.3525  12.2628  13.6082

          k = 0.0000 0.3891 0.0000 (  4200 PWs)   bands (ev):

   -10.0828  -9.9799  -8.2279  -8.2002  -8.1906  -8.1622  -8.1479  -8.1072
    -8.0915  -8.0839  -7.6623  -7.2084   0.4680   0.8114   4.4013   4.4967
     5.1744   5.2475   5.8870   6.8420  10.8863  11.1154  13.2176  13.9589

          k = 0.0000 0.3891 0.1541 (  4212 PWs)   bands (ev):

   -10.0848  -9.9814  -8.2368  -8.2038  -8.1974  -8.1654  -8.1383  -8.1046
    -8.0843  -8.0692  -7.6589  -7.2048   0.3319   0.9245   4.2029   4.5150
     5.0679   5.2502   6.1697   6.9110  10.6493  11.0799  13.4574  13.6005

          k = 0.0000 0.3891 0.3082 (  4218 PWs)   bands (ev):

   -10.0880  -9.9837  -8.2464  -8.2251  -8.1931  -8.1679  -8.1233  -8.1029
    -8.0654  -8.0576  -7.6530  -7.1989   0.1764   1.0468   3.9601   4.5453
     4.9042   5.2542   6.6285   6.9358  10.3355  10.9729  13.2525  14.0928

          k = 0.1946 0.1946 0.0000 (  4205 PWs)   bands (ev):

   -10.1568  -9.9345  -8.2519  -8.2173  -8.1895  -8.1616  -8.1505  -8.1141
    -8.0796  -8.0725  -7.8889  -6.9431   0.3373   1.0094   3.7313   4.5057
     5.2675   5.4508   6.4668   7.4587  11.1024  11.4897  12.2891  12.3063

          k = 0.1946 0.1946 0.1541 (  4205 PWs)   bands (ev):

   -10.1562  -9.9333  -8.2409  -8.2233  -8.1847  -8.1659  -8.1442  -8.1210
    -8.0922  -8.0701  -7.8777  -6.9386   0.0701   1.3077   3.5626   4.5475
     5.3876   5.5890   6.4687   7.3101  10.8957  11.1081  11.5469  13.4833

          k = 0.1946 0.1946 0.3082 (  4204 PWs)   bands (ev):

   -10.1554  -9.9314  -8.2315  -8.2147  -8.1780  -8.1713  -8.1496  -8.1220
    -8.1156  -8.0676  -7.8597  -6.9314  -0.2061   1.6670   3.3132   4.6293
     5.2725   6.1471   6.4719   7.0042  10.2203  10.8231  11.6261  14.2435

          k = 0.1946 0.3891 0.0000 (  4213 PWs)   bands (ev):

   -10.0581  -9.9776  -8.2099  -8.1848  -8.1741  -8.1593  -8.1354  -8.1003
    -8.0813  -8.0789  -7.6127  -7.2188   0.1652   0.4927   4.1399   4.8324
     5.2941   5.4815   6.3206   6.7781  10.5826  10.7323  12.8402  12.8944

          k = 0.1946 0.3891 0.1541 (  4203 PWs)   bands (ev):

   -10.0596  -9.9782  -8.2133  -8.1952  -8.1709  -8.1533  -8.1362  -8.1063
    -8.0821  -8.0733  -7.5978  -7.2093   0.0996   0.5713   3.8670   4.6701
     5.3613   5.7894   6.3313   6.7534  10.5470  10.8664  12.3330  13.2457

          k = 0.1946 0.3891 0.3082 (  4207 PWs)   bands (ev):

   -10.0621  -9.9794  -8.2225  -8.2024  -8.1743  -8.1501  -8.1258  -8.1069
    -8.0872  -8.0716  -7.5741  -7.1941   0.0179   0.6770   3.5557   4.4683
     5.4209   6.0948   6.3888   6.7048  10.4929  11.2105  12.0925  13.3125

          k = 0.3891 0.3891 0.0000 (  4199 PWs)   bands (ev):

   -10.0154  -9.9863  -8.1865  -8.1823  -8.1432  -8.1161  -8.1026  -8.0924
    -8.0700  -8.0641  -7.4710  -7.3003  -0.2366  -0.0884   4.3711   4.7088
     5.8092   6.2785   6.4372   6.7128   9.5763   9.6386  12.7974  13.0428

          k = 0.3891 0.3891 0.1541 (  4206 PWs)   bands (ev):

   -10.0158  -9.9862  -8.1828  -8.1748  -8.1421  -8.1173  -8.1122  -8.0997
    -8.0806  -8.0795  -7.4442  -7.2792  -0.2328  -0.0502   4.1329   4.5787
     5.8750   6.2920   6.3151   6.7126   9.9217   9.9943  12.6010  13.1309

          k = 0.3891 0.3891 0.3082 (  4186 PWs)   bands (ev):

   -10.0164  -9.9858  -8.1830  -8.1583  -8.1380  -8.1239  -8.1203  -8.1140
    -8.1031  -8.0951  -7.4037  -7.2466  -0.2231   0.0104   3.8320   4.3949
     5.8029   6.1382   6.3572   6.7125  10.8000  11.0045  11.9408  12.9120

     the Fermi energy is     8.4554 ev

!    total energy              =   -1824.47470614 Ry
     total all-electron energy =    -83829.225422 Ry
     estimated scf accuracy    <          8.5E-12 Ry
     smearing contrib. (-TS)   =       0.00000000 Ry
     internal energy E=F+TS    =   -1824.47470614 Ry

     The total energy is F=E-TS. E is the sum of the following terms:
     one-electron contribution =    -117.56605374 Ry
     hartree contribution      =      90.43226802 Ry
     xc contribution           =    -103.60630985 Ry
     ewald contribution        =    -217.78450335 Ry
     one-center paw contrib.   =   -1475.95010722 Ry

     convergence has been achieved in  11 iterations

     Forces acting on atoms (cartesian axes, Ry/au):

     atom    1 type  1   force =     0.00000000    0.00000000    0.00474975
     atom    2 type  1   force =     0.00000000    0.00000000   -0.00474975
     atom    3 type  2   force =     0.00000000    0.00000000    0.00000000
     atom    4 type  2   force =     0.00000000    0.00000000    0.00000000

     Total force =     0.006717     Total SCF correction =     0.000003


     Computing stress (Cartesian axis) and pressure

          total   stress  (Ry/bohr**3)                   (kbar)     P=        5.89
   0.00002046   0.00000000   0.00000000            3.01        0.00        0.00
   0.00000000   0.00002046   0.00000000            0.00        3.01        0.00
   0.00000000   0.00000000   0.00007911            0.00        0.00       11.64

     Energy error            =      1.5E-04 Ry
     Gradient error          =      4.7E-03 Ry/Bohr
     Cell gradient error     =      1.2E+01 kbar

     number of scf cycles    =   9
     number of bfgs steps    =   8

     enthalpy           old  =   -1824.4745541209 Ry
     enthalpy           new  =   -1824.4747061405 Ry

     CASE: enthalpy          _new < enthalpy          _old

     new trust radius        =       0.0462675071 bohr
     new conv_thr            =       0.0000000002 Ry

     new unit-cell volume =    584.18111 a.u.^3 (    86.56671 Ang^3 )
     density =      8.56289 g/cm^3

CELL_PARAMETERS (alat=  7.51052751)
   1.025921987   0.000000000   0.000000000
   0.000000000   1.025921987   0.000000000
   0.000000000   0.000000000   1.310109246

ATOMIC_POSITIONS (crystal)
Pb               0.0000000000        0.5000000000        0.2251401022
Pb               0.5000000000        0.0000000000        0.7748598978
O                0.0000000000        0.0000000000        0.0000000000
O                0.5000000000        0.5000000000        0.0000000000



     Writing config-only to output data dir ./FeAl.save/ :
     XML data file
     NEW-OLD atomic charge density approx. for the potential
     New effective cutoffs (rho, wfc):  227.76   56.99

     Check: negative core charge=   -0.000008

     total cpu time spent up to now is      813.5 secs

     Self-consistent Calculation

     iteration #  1     ecut=    60.00 Ry     beta= 0.70
     Davidson diagonalization with overlap
     ethr =  1.00E-06,  avg # of iterations =  8.6

     total cpu time spent up to now is      826.6 secs

     total energy              =   -1824.47461618 Ry
     estimated scf accuracy    <       0.00040181 Ry

     iteration #  2     ecut=    60.00 Ry     beta= 0.70
     Davidson diagonalization with overlap
     ethr =  1.00E-06,  avg # of iterations =  5.2

     total cpu time spent up to now is      834.9 secs

     total energy              =   -1824.47480384 Ry
     estimated scf accuracy    <       0.00050960 Ry

     iteration #  3     ecut=    60.00 Ry     beta= 0.70
     Davidson diagonalization with overlap
     ethr =  1.00E-06,  avg # of iterations =  2.2

     total cpu time spent up to now is      840.0 secs

     total energy              =   -1824.47488698 Ry
     estimated scf accuracy    <       0.00012077 Ry

     iteration #  4     ecut=    60.00 Ry     beta= 0.70
     Davidson diagonalization with overlap
     ethr =  3.02E-07,  avg # of iterations =  1.6

     total cpu time spent up to now is      844.6 secs

     total energy              =   -1824.47490570 Ry
     estimated scf accuracy    <       0.00004838 Ry

     iteration #  5     ecut=    60.00 Ry     beta= 0.70
     Davidson diagonalization with overlap
     ethr =  1.21E-07,  avg # of iterations =  1.9

     total cpu time spent up to now is      849.3 secs

     total energy              =   -1824.47491092 Ry
     estimated scf accuracy    <       0.00002233 Ry

     iteration #  6     ecut=    60.00 Ry     beta= 0.70
     Davidson diagonalization with overlap
     ethr =  5.58E-08,  avg # of iterations =  2.7

     total cpu time spent up to now is      854.3 secs

     total energy              =   -1824.47491319 Ry
     estimated scf accuracy    <       0.00000213 Ry

     iteration #  7     ecut=    60.00 Ry     beta= 0.70
     Davidson diagonalization with overlap
     ethr =  5.33E-09,  avg # of iterations =  5.8

     total cpu time spent up to now is      862.7 secs

     total energy              =   -1824.47491518 Ry
     estimated scf accuracy    <       0.00000020 Ry

     iteration #  8     ecut=    60.00 Ry     beta= 0.70
     Davidson diagonalization with overlap
     ethr =  5.06E-10,  avg # of iterations =  6.0

     total cpu time spent up to now is      870.2 secs

     total energy              =   -1824.47491532 Ry
     estimated scf accuracy    <       0.00000005 Ry

     iteration #  9     ecut=    60.00 Ry     beta= 0.70
     Davidson diagonalization with overlap
     ethr =  1.30E-10,  avg # of iterations =  2.9

     total cpu time spent up to now is      875.2 secs

     total energy              =   -1824.47491533 Ry
     estimated scf accuracy    <       0.00000002 Ry

     iteration # 10     ecut=    60.00 Ry     beta= 0.70
     Davidson diagonalization with overlap
     ethr =  4.60E-11,  avg # of iterations =  4.2

     total cpu time spent up to now is      880.8 secs

     total energy              =   -1824.47491534 Ry
     estimated scf accuracy    <          2.4E-09 Ry

     iteration # 11     ecut=    60.00 Ry     beta= 0.70
     Davidson diagonalization with overlap
     ethr =  5.93E-12,  avg # of iterations =  5.1

     total cpu time spent up to now is      887.3 secs

     total energy              =   -1824.47491534 Ry
     estimated scf accuracy    <          3.7E-10 Ry

     iteration # 12     ecut=    60.00 Ry     beta= 0.70
     Davidson diagonalization with overlap
     ethr =  9.22E-13,  avg # of iterations =  4.9

     total cpu time spent up to now is      893.8 secs

     End of self-consistent calculation

          k = 0.0000 0.0000 0.0000 (  4219 PWs)   bands (ev):

   -10.3517  -9.9809  -8.3323  -8.3323  -8.2864  -8.2513  -8.1998  -8.1531
    -8.1531  -8.1425  -8.1161  -6.8080   0.5840   1.2495   3.6239   3.6239
     6.0674   6.0674   6.1084   7.5372   9.6555  12.5877  13.2998  13.2998

          k = 0.0000 0.0000 0.1527 (  4207 PWs)   bands (ev):

   -10.3470  -9.9777  -8.3223  -8.3223  -8.2778  -8.2574  -8.1950  -8.1649
    -8.1649  -8.1444  -8.1209  -6.8056   0.0082   1.9986   3.6613   3.6613
     6.0604   6.0604   6.0957   7.3821   9.4603  12.4064  12.5015  12.5015

          k = 0.0000 0.0000 0.3053 (  4200 PWs)   bands (ev):

   -10.3395  -9.9726  -8.3018  -8.3018  -8.2674  -8.2630  -8.1881  -8.1881
    -8.1856  -8.1482  -8.1303  -6.8017  -0.4460   2.7938   3.7239   3.7239
     6.0478   6.0478   6.0753   7.0026   9.3256  11.8382  11.8929  11.8929

          k = 0.0000 0.1949 0.0000 (  4183 PWs)   bands (ev):

   -10.2890  -9.9966  -8.3201  -8.3092  -8.2652  -8.2320  -8.2181  -8.1692
    -8.1508  -8.1265  -8.0310  -6.9202   0.4500   1.1587   3.7717   3.8445
     5.5152   5.8187   5.9927   7.5218  10.5595  11.5672  12.9208  13.4812

          k = 0.0000 0.1949 0.1527 (  4194 PWs)   bands (ev):

   -10.2869  -9.9949  -8.3161  -8.3007  -8.2580  -8.2361  -8.2225  -8.1751
    -8.1557  -8.1223  -8.0323  -6.9177   0.0503   1.6268   3.7390   3.8758
     5.5982   5.8132   6.0377   7.3904  10.3520  10.9629  12.7926  13.5116

          k = 0.0000 0.1949 0.3053 (  4191 PWs)   bands (ev):

   -10.2837  -9.9922  -8.3059  -8.2859  -8.2438  -8.2414  -8.2390  -8.1901
    -8.1483  -8.1253  -8.0334  -6.9138  -0.3143   2.1411   3.6276   3.9281
     5.6909   5.8033   6.3136   7.0304  10.1375  10.3256  12.2459  13.5409

          k = 0.0000 0.3899 0.0000 (  4200 PWs)   bands (ev):

   -10.1624 -10.0558  -8.2899  -8.2613  -8.2533  -8.2244  -8.2068  -8.1672
    -8.1510  -8.1444  -7.7216  -7.2666   0.3962   0.7599   4.3150   4.4323
     5.0944   5.1846   5.8177   6.7776  10.8193  11.0259  13.1151  13.9328

          k = 0.0000 0.3899 0.1527 (  4212 PWs)   bands (ev):

   -10.1642 -10.0572  -8.2979  -8.2654  -8.2591  -8.2274  -8.1978  -8.1647
    -8.1446  -8.1309  -7.7184  -7.2633   0.2667   0.8664   4.1277   4.4491
     4.9949   5.1868   6.0933   6.8429  10.5802  10.9956  13.3623  13.5734

          k = 0.0000 0.3899 0.3053 (  4218 PWs)   bands (ev):

   -10.1671 -10.0594  -8.3066  -8.2849  -8.2557  -8.2300  -8.1835  -8.1630
    -8.1274  -8.1201  -7.7128  -7.2578   0.1158   0.9835   3.8963   4.4767
     4.8414   5.1900   6.5499   6.8612  10.2672  10.8956  13.2330  13.9873

          k = 0.1949 0.1949 0.0000 (  4205 PWs)   bands (ev):

   -10.2380 -10.0080  -8.3119  -8.2792  -8.2484  -8.2253  -8.2115  -8.1745
    -8.1414  -8.1339  -7.9481  -7.0007   0.2539   0.9689   3.6432   4.4440
     5.2013   5.3735   6.4057   7.3972  11.0154  11.4567  12.2139  12.2462

          k = 0.1949 0.1949 0.1527 (  4205 PWs)   bands (ev):

   -10.2375 -10.0070  -8.3014  -8.2848  -8.2439  -8.2293  -8.2059  -8.1810
    -8.1533  -8.1316  -7.9375  -6.9966   0.0016   1.2523   3.4834   4.4833
     5.3141   5.5129   6.4074   7.2458  10.8312  11.0519  11.5124  13.4009

          k = 0.1949 0.1949 0.3053 (  4204 PWs)   bands (ev):

   -10.2367 -10.0053  -8.2925  -8.2768  -8.2403  -8.2315  -8.2103  -8.1829
    -8.1754  -8.1292  -7.9206  -6.9899  -0.2653   1.6001   3.2448   4.5596
     5.2068   6.0665   6.4102   6.9287  10.1908  10.7618  11.5906  14.1602

          k = 0.1949 0.3899 0.0000 (  4213 PWs)   bands (ev):

   -10.1375 -10.0540  -8.2709  -8.2463  -8.2365  -8.2204  -8.1951  -8.1608
    -8.1419  -8.1398  -7.6700  -7.2755   0.0964   0.4385   4.0472   4.7476
     5.2340   5.4184   6.2558   6.7111  10.5289  10.6499  12.7925  12.8322

          k = 0.1949 0.3899 0.1527 (  4203 PWs)   bands (ev):

   -10.1389 -10.0546  -8.2742  -8.2561  -8.2333  -8.2150  -8.1954  -8.1664
    -8.1430  -8.1348  -7.6561  -7.2666   0.0334   0.5122   3.7899   4.5962
     5.2963   5.7167   6.2660   6.6869  10.4798  10.7963  12.2839  13.2058

          k = 0.1949 0.3899 0.3053 (  4207 PWs)   bands (ev):

   -10.1411 -10.0556  -8.2827  -8.2625  -8.2368  -8.2120  -8.1856  -8.1670
    -8.1483  -8.1334  -7.6340  -7.2524  -0.0463   0.6120   3.4926   4.4049
     5.3541   6.0248   6.3238   6.6348  10.4225  11.1313  12.0527  13.2739

          k = 0.3899 0.3899 0.0000 (  4199 PWs)   bands (ev):

   -10.0942 -10.0639  -8.2475  -8.2431  -8.2039  -8.1778  -8.1634  -8.1528
    -8.1314  -8.1261  -7.5251  -7.3544  -0.3023  -0.1492   4.2773   4.6206
     5.7376   6.2202   6.3624   6.6525   9.5442   9.5895  12.7222  12.9776

          k = 0.3899 0.3899 0.1527 (  4206 PWs)   bands (ev):

   -10.0944 -10.0637  -8.2442  -8.2359  -8.2027  -8.1789  -8.1722  -8.1599
    -8.1417  -8.1404  -7.5002  -7.3347  -0.2996  -0.1140   4.0537   4.4993
     5.8028   6.2257   6.2544   6.6523   9.8678   9.9519  12.5277  13.0801

          k = 0.3899 0.3899 0.3053 (  4186 PWs)   bands (ev):

   -10.0949 -10.0632  -8.2441  -8.2206  -8.1979  -8.1854  -8.1795  -8.1734
    -8.1636  -8.1557  -7.4624  -7.3043  -0.2922  -0.0581   3.7684   4.3266
     5.7464   6.0780   6.2946   6.6522  10.7274  10.9466  11.8621  12.7941

     the Fermi energy is     8.3723 ev

!    total energy              =   -1824.47491534 Ry
     total all-electron energy =    -83829.225631 Ry
     estimated scf accuracy    <          2.6E-11 Ry
     smearing contrib. (-TS)   =       0.00000000 Ry
     internal energy E=F+TS    =   -1824.47491534 Ry

     The total energy is F=E-TS. E is the sum of the following terms:
     one-electron contribution =    -119.99873725 Ry
     hartree contribution      =      91.55515583 Ry
     xc contribution           =    -103.60956944 Ry
     ewald contribution        =    -216.47145387 Ry
     one-center paw contrib.   =   -1475.95031061 Ry

     convergence has been achieved in  12 iterations

     Forces acting on atoms (cartesian axes, Ry/au):

     atom    1 type  1   force =     0.00000000    0.00000000    0.00559268
     atom    2 type  1   force =     0.00000000    0.00000000   -0.00559268
     atom    3 type  2   force =     0.00000000    0.00000000    0.00000000
     atom    4 type  2   force =     0.00000000    0.00000000    0.00000000

     Total force =     0.007909     Total SCF correction =     0.000005


     Computing stress (Cartesian axis) and pressure

          total   stress  (Ry/bohr**3)                   (kbar)     P=        7.00
   0.00003240   0.00000000   0.00000000            4.77        0.00        0.00
   0.00000000   0.00003240   0.00000000            0.00        4.77        0.00
   0.00000000   0.00000000   0.00007802            0.00        0.00       11.48

     Energy error            =      2.1E-04 Ry
     Gradient error          =      5.6E-03 Ry/Bohr
     Cell gradient error     =      1.1E+01 kbar

     number of scf cycles    =  10
     number of bfgs steps    =   9

     enthalpy           old  =   -1824.4747061405 Ry
     enthalpy           new  =   -1824.4749153368 Ry

     CASE: enthalpy          _new < enthalpy          _old

     new trust radius        =       0.0689374836 bohr
     new conv_thr            =       0.0000000002 Ry

     new unit-cell volume =    589.95595 a.u.^3 (    87.42245 Ang^3 )
     density =      8.47907 g/cm^3

CELL_PARAMETERS (alat=  7.51052751)
   1.023706592   0.000000000   0.000000000
   0.000000000   1.023706592   0.000000000
   0.000000000   0.000000000   1.328792787

ATOMIC_POSITIONS (crystal)
Pb               0.0000000000        0.5000000000        0.2229457892
Pb               0.5000000000        0.0000000000        0.7770542108
O                0.0000000000        0.0000000000        0.0000000000
O                0.5000000000        0.5000000000        0.0000000000



     Writing config-only to output data dir ./FeAl.save/ :
     XML data file
     NEW-OLD atomic charge density approx. for the potential
     New effective cutoffs (rho, wfc):  228.65   57.23

     Check: negative core charge=   -0.000008

     total cpu time spent up to now is      900.1 secs

     Self-consistent Calculation

     iteration #  1     ecut=    60.00 Ry     beta= 0.70
     Davidson diagonalization with overlap
     ethr =  1.00E-06,  avg # of iterations = 10.2

     total cpu time spent up to now is      914.8 secs

     total energy              =   -1824.47432885 Ry
     estimated scf accuracy    <       0.00119601 Ry

     iteration #  2     ecut=    60.00 Ry     beta= 0.70
     Davidson diagonalization with overlap
     ethr =  2.99E-06,  avg # of iterations =  5.1

     total cpu time spent up to now is      923.6 secs

     total energy              =   -1824.47483971 Ry
     estimated scf accuracy    <       0.00157470 Ry

     iteration #  3     ecut=    60.00 Ry     beta= 0.70
     Davidson diagonalization with overlap
     ethr =  2.99E-06,  avg # of iterations =  2.2

     total cpu time spent up to now is      928.7 secs

     total energy              =   -1824.47510397 Ry
     estimated scf accuracy    <       0.00036268 Ry

     iteration #  4     ecut=    60.00 Ry     beta= 0.70
     Davidson diagonalization with overlap
     ethr =  9.07E-07,  avg # of iterations =  1.7

     total cpu time spent up to now is      933.3 secs

     total energy              =   -1824.47515754 Ry
     estimated scf accuracy    <       0.00014680 Ry

     iteration #  5     ecut=    60.00 Ry     beta= 0.70
     Davidson diagonalization with overlap
     ethr =  3.67E-07,  avg # of iterations =  1.9

     total cpu time spent up to now is      938.1 secs

     total energy              =   -1824.47517313 Ry
     estimated scf accuracy    <       0.00007793 Ry

     iteration #  6     ecut=    60.00 Ry     beta= 0.70
     Davidson diagonalization with overlap
     ethr =  1.95E-07,  avg # of iterations =  2.0

     total cpu time spent up to now is      943.0 secs

     total energy              =   -1824.47517962 Ry
     estimated scf accuracy    <       0.00000870 Ry

     iteration #  7     ecut=    60.00 Ry     beta= 0.70
     Davidson diagonalization with overlap
     ethr =  2.18E-08,  avg # of iterations =  5.3

     total cpu time spent up to now is      950.5 secs

     total energy              =   -1824.47518594 Ry
     estimated scf accuracy    <       0.00000080 Ry

     iteration #  8     ecut=    60.00 Ry     beta= 0.70
     Davidson diagonalization with overlap
     ethr =  1.99E-09,  avg # of iterations =  5.7

     total cpu time spent up to now is      958.1 secs

     total energy              =   -1824.47518646 Ry
     estimated scf accuracy    <       0.00000009 Ry

     iteration #  9     ecut=    60.00 Ry     beta= 0.70
     Davidson diagonalization with overlap
     ethr =  2.33E-10,  avg # of iterations =  5.1

     total cpu time spent up to now is      964.5 secs

     total energy              =   -1824.47518651 Ry
     estimated scf accuracy    <       0.00000008 Ry

     iteration # 10     ecut=    60.00 Ry     beta= 0.70
     Davidson diagonalization with overlap
     ethr =  2.09E-10,  avg # of iterations =  1.4

     total cpu time spent up to now is      968.9 secs

     total energy              =   -1824.47518651 Ry
     estimated scf accuracy    <          9.4E-09 Ry

     iteration # 11     ecut=    60.00 Ry     beta= 0.70
     Davidson diagonalization with overlap
     ethr =  2.35E-11,  avg # of iterations =  4.9

     total cpu time spent up to now is      975.9 secs

     End of self-consistent calculation

          k = 0.0000 0.0000 0.0000 (  4219 PWs)   bands (ev):

   -10.4735 -10.0912  -8.4395  -8.4395  -8.3927  -8.3657  -8.3083  -8.2636
    -8.2636  -8.2534  -8.2282  -6.9186   0.4157   1.1777   3.5224   3.5224
     5.9702   5.9702   5.9922   7.4432   9.5086  12.3719  13.2400  13.2400

          k = 0.0000 0.0000 0.1505 (  4207 PWs)   bands (ev):

   -10.4694 -10.0885  -8.4303  -8.4303  -8.3853  -8.3710  -8.3041  -8.2743
    -8.2743  -8.2550  -8.2324  -6.9164  -0.1074   1.8723   3.5558   3.5558
     5.9635   5.9635   5.9812   7.2653   9.3415  12.2512  12.4297  12.4297

          k = 0.0000 0.0000 0.3010 (  4200 PWs)   bands (ev):

   -10.4628 -10.0841  -8.4119  -8.4119  -8.3797  -8.3727  -8.2962  -8.2951
    -8.2951  -8.2580  -8.2403  -6.9129  -0.5401   2.6411   3.6115   3.6115
     5.9515   5.9515   5.9635   6.8594   9.2357  11.7676  11.8393  11.8393

          k = 0.0000 0.1954 0.0000 (  4183 PWs)   bands (ev):

   -10.4105 -10.1087  -8.4281  -8.4171  -8.3714  -8.3456  -8.3282  -8.2789
    -8.2598  -8.2379  -8.1407  -7.0294   0.3005   1.0825   3.6536   3.7428
     5.4028   5.7202   5.8786   7.4147  10.4169  11.4859  12.7279  13.4208

          k = 0.0000 0.1954 0.1505 (  4194 PWs)   bands (ev):

   -10.4087 -10.1073  -8.4242  -8.4096  -8.3650  -8.3492  -8.3325  -8.2843
    -8.2640  -8.2341  -8.1417  -7.0272  -0.0653   1.5186   3.6220   3.7707
     5.4821   5.7148   5.9241   7.2734  10.2285  10.8825  12.7224  13.3144

          k = 0.0000 0.1954 0.3010 (  4191 PWs)   bands (ev):

   -10.4059 -10.1050  -8.4150  -8.3968  -8.3556  -8.3505  -8.3468  -8.2979
    -8.2582  -8.2365  -8.1424  -7.0237  -0.4118   2.0140   3.5178   3.8172
     5.5768   5.7053   6.1920   6.8955  10.0378  10.2631  12.1916  13.4061

          k = 0.0000 0.3907 0.0000 (  4200 PWs)   bands (ev):

   -10.2823 -10.1720  -8.3998  -8.3708  -8.3644  -8.3355  -8.3133  -8.2755
    -8.2592  -8.2539  -7.8291  -7.3739   0.2767   0.6658   4.1820   4.3305
     4.9675   5.0839   5.7040   6.6641  10.6968  10.8706  12.9430  13.8619

          k = 0.0000 0.3907 0.1505 (  4212 PWs)   bands (ev):

   -10.2839 -10.1733  -8.4065  -8.3750  -8.3692  -8.3383  -8.3052  -8.2731
    -8.2539  -8.2419  -7.8262  -7.3709   0.1559   0.7638   4.0101   4.3453
     4.8776   5.0854   5.9684   6.7241  10.4557  10.8477  13.1975  13.5016

          k = 0.0000 0.3907 0.3010 (  4218 PWs)   bands (ev):

   -10.2866 -10.1753  -8.4142  -8.3921  -8.3668  -8.3411  -8.2919  -8.2715
    -8.2388  -8.2323  -7.8211  -7.3661   0.0121   0.8740   3.7949   4.3696
     4.7382   5.0877   6.4182   6.7339  10.1451  10.7577  13.1728  13.8046

          k = 0.1954 0.1954 0.0000 (  4205 PWs)   bands (ev):

   -10.3594 -10.1216  -8.4191  -8.3891  -8.3547  -8.3381  -8.3210  -8.2835
    -8.2523  -8.2447  -8.0554  -7.1083   0.1196   0.8881   3.5094   4.3455
     5.0943   5.2507   6.3051   7.2833  10.8637  11.3819  12.0562  12.1587

          k = 0.1954 0.1954 0.1505 (  4205 PWs)   bands (ev):

   -10.3590 -10.1207  -8.4093  -8.3942  -8.3507  -8.3417  -8.3162  -8.2894
    -8.2632  -8.2425  -8.0458  -7.1046  -0.1133   1.1525   3.3620   4.3815
     5.1966   5.3908   6.3065   7.1291  10.7097  10.9491  11.4358  13.2546

          k = 0.1954 0.1954 0.3010 (  4204 PWs)   bands (ev):

   -10.3583 -10.1193  -8.4014  -8.3871  -8.3512  -8.3395  -8.3194  -8.2922
    -8.2834  -8.2404  -8.0304  -7.0986  -0.3667   1.4836   3.1392   4.4504
     5.0995   5.9331   6.3087   6.7998  10.1243  10.6487  11.5126  14.0028

          k = 0.1954 0.3907 0.0000 (  4213 PWs)   bands (ev):

   -10.2576 -10.1710  -8.3798  -8.3563  -8.3474  -8.3300  -8.3027  -8.2698
    -8.2516  -8.2497  -7.7748  -7.3805  -0.0165   0.3434   3.9055   4.6155
     5.1359   5.3123   6.1497   6.5938  10.4249  10.5049  12.6961  12.7133

          k = 0.1954 0.3907 0.1505 (  4203 PWs)   bands (ev):

   -10.2588 -10.1715  -8.3828  -8.3651  -8.3444  -8.3255  -8.3023  -8.2749
    -8.2529  -8.2455  -7.7623  -7.3725  -0.0762   0.4109   3.6696   4.4785
     5.1921   5.5969   6.1587   6.5703  10.3570  10.6687  12.1862  13.1178

          k = 0.1954 0.3907 0.3010 (  4207 PWs)   bands (ev):

   -10.2608 -10.1724  -8.3906  -8.3702  -8.3478  -8.3228  -8.2934  -8.2753
    -8.2583  -8.2447  -7.7423  -7.3597  -0.1531   0.5030   3.3922   4.3016
     5.2474   5.9089   6.2130   6.5144  10.2971  10.9903  11.9680  13.1827

          k = 0.3907 0.3907 0.0000 (  4199 PWs)   bands (ev):

   -10.2142 -10.1827  -8.3569  -8.3522  -8.3127  -8.2881  -8.2727  -8.2619
    -8.2421  -8.2376  -7.6255  -7.4552  -0.4082  -0.2493   4.1334   4.4845
     5.6155   6.1233   6.2337   6.5527   9.4726   9.4929  12.5880  12.8566

          k = 0.3907 0.3907 0.1505 (  4206 PWs)   bands (ev):

   -10.2143 -10.1824  -8.3540  -8.3456  -8.3113  -8.2892  -8.2803  -8.2687
    -8.2519  -8.2504  -7.6033  -7.4376  -0.4070  -0.2178   3.9294   4.3747
     5.6793   6.1089   6.1544   6.5525   9.7644   9.8659  12.3948  12.9791

          k = 0.3907 0.3907 0.3010 (  4186 PWs)   bands (ev):

   -10.2145 -10.1819  -8.3536  -8.3319  -8.3061  -8.2952  -8.2867  -8.2809
    -8.2725  -8.2651  -7.5693  -7.4103  -0.4024  -0.1680   3.6654   4.2169
     5.6426   5.9706   6.1921   6.5524  10.5972  10.8383  11.7223  12.5980

     the Fermi energy is     8.2239 ev

!    total energy              =   -1824.47518651 Ry
     total all-electron energy =    -83829.225903 Ry
     estimated scf accuracy    <          2.0E-10 Ry
     smearing contrib. (-TS)   =       0.00000000 Ry
     internal energy E=F+TS    =   -1824.47518651 Ry

     The total energy is F=E-TS. E is the sum of the following terms:
     one-electron contribution =    -123.66014792 Ry
     hartree contribution      =      93.22285835 Ry
     xc contribution           =    -103.60974801 Ry
     ewald contribution        =    -214.47769986 Ry
     one-center paw contrib.   =   -1475.95044908 Ry

     convergence has been achieved in  11 iterations

     Forces acting on atoms (cartesian axes, Ry/au):

     atom    1 type  1   force =     0.00000000    0.00000000    0.00540347
     atom    2 type  1   force =     0.00000000    0.00000000   -0.00540347
     atom    3 type  2   force =     0.00000000    0.00000000    0.00000000
     atom    4 type  2   force =     0.00000000    0.00000000    0.00000000

     Total force =     0.007642     Total SCF correction =     0.000010


     Computing stress (Cartesian axis) and pressure

          total   stress  (Ry/bohr**3)                   (kbar)     P=        7.03
   0.00003843   0.00000000   0.00000000            5.65        0.00        0.00
   0.00000000   0.00003843   0.00000000            0.00        5.65        0.00
   0.00000000   0.00000000   0.00006645            0.00        0.00        9.78

     Energy error            =      2.7E-04 Ry
     Gradient error          =      5.4E-03 Ry/Bohr
     Cell gradient error     =      9.8E+00 kbar

     number of scf cycles    =  11
     number of bfgs steps    =  10

     enthalpy           old  =   -1824.4749153368 Ry
     enthalpy           new  =   -1824.4751865148 Ry

     CASE: enthalpy          _new < enthalpy          _old

     new trust radius        =       0.1024549565 bohr
     new conv_thr            =       0.0000000003 Ry

     new unit-cell volume =    599.89735 a.u.^3 (    88.89562 Ang^3 )
     density =      8.33856 g/cm^3

CELL_PARAMETERS (alat=  7.51052751)
   1.021579093   0.000000000   0.000000000
   0.000000000   1.021579093   0.000000000
   0.000000000   0.000000000   1.356818098

ATOMIC_POSITIONS (crystal)
Pb               0.0000000000        0.5000000000        0.2198616880
Pb               0.5000000000        0.0000000000        0.7801383120
O                0.0000000000        0.0000000000        0.0000000000
O                0.5000000000        0.5000000000        0.0000000000



     Writing config-only to output data dir ./FeAl.save/ :
     XML data file
     NEW-OLD atomic charge density approx. for the potential
     New effective cutoffs (rho, wfc):  229.53   57.46

     Check: negative core charge=   -0.000009

     total cpu time spent up to now is      982.2 secs

     Self-consistent Calculation

     iteration #  1     ecut=    60.00 Ry     beta= 0.70
     Davidson diagonalization with overlap
     ethr =  1.00E-06,  avg # of iterations = 11.1

     total cpu time spent up to now is      999.6 secs

     total energy              =   -1824.47292825 Ry
     estimated scf accuracy    <       0.00363819 Ry

     iteration #  2     ecut=    60.00 Ry     beta= 0.70
     Davidson diagonalization with overlap
     ethr =  9.10E-06,  avg # of iterations =  4.8

     total cpu time spent up to now is     1008.2 secs

     total energy              =   -1824.47444418 Ry
     estimated scf accuracy    <       0.00499922 Ry

     iteration #  3     ecut=    60.00 Ry     beta= 0.70
     Davidson diagonalization with overlap
     ethr =  9.10E-06,  avg # of iterations =  2.3

     total cpu time spent up to now is     1013.3 secs

     total energy              =   -1824.47523862 Ry
     estimated scf accuracy    <       0.00115061 Ry

     iteration #  4     ecut=    60.00 Ry     beta= 0.70
     Davidson diagonalization with overlap
     ethr =  2.88E-06,  avg # of iterations =  1.6

     total cpu time spent up to now is     1017.9 secs

     total energy              =   -1824.47539361 Ry
     estimated scf accuracy    <       0.00047581 Ry

     iteration #  5     ecut=    60.00 Ry     beta= 0.70
     Davidson diagonalization with overlap
     ethr =  1.19E-06,  avg # of iterations =  1.7

     total cpu time spent up to now is     1022.4 secs

     total energy              =   -1824.47543636 Ry
     estimated scf accuracy    <       0.00026078 Ry

     iteration #  6     ecut=    60.00 Ry     beta= 0.70
     Davidson diagonalization with overlap
     ethr =  6.52E-07,  avg # of iterations =  1.9

     total cpu time spent up to now is     1027.3 secs

     total energy              =   -1824.47545489 Ry
     estimated scf accuracy    <       0.00004056 Ry

     iteration #  7     ecut=    60.00 Ry     beta= 0.70
     Davidson diagonalization with overlap
     ethr =  1.01E-07,  avg # of iterations =  5.1

     total cpu time spent up to now is     1034.4 secs

     total energy              =   -1824.47547291 Ry
     estimated scf accuracy    <       0.00000127 Ry

     iteration #  8     ecut=    60.00 Ry     beta= 0.70
     Davidson diagonalization with overlap
     ethr =  3.18E-09,  avg # of iterations =  8.4

     total cpu time spent up to now is     1045.5 secs

     total energy              =   -1824.47547621 Ry
     estimated scf accuracy    <       0.00000048 Ry

     iteration #  9     ecut=    60.00 Ry     beta= 0.70
     Davidson diagonalization with overlap
     ethr =  1.19E-09,  avg # of iterations =  3.4

     total cpu time spent up to now is     1050.7 secs

     total energy              =   -1824.47547629 Ry
     estimated scf accuracy    <       0.00000003 Ry

     iteration # 10     ecut=    60.00 Ry     beta= 0.70
     Davidson diagonalization with overlap
     ethr =  6.61E-11,  avg # of iterations =  7.3

     total cpu time spent up to now is     1061.2 secs

     total energy              =   -1824.47547632 Ry
     estimated scf accuracy    <       0.00000024 Ry

     iteration # 11     ecut=    60.00 Ry     beta= 0.70
     Davidson diagonalization with overlap
     ethr =  6.61E-11,  avg # of iterations =  3.2

     total cpu time spent up to now is     1066.9 secs

     total energy              =   -1824.47547632 Ry
     estimated scf accuracy    <       0.00000005 Ry

     iteration # 12     ecut=    60.00 Ry     beta= 0.70
     Davidson diagonalization with overlap
     ethr =  6.61E-11,  avg # of iterations =  4.3

     total cpu time spent up to now is     1073.0 secs

     total energy              =   -1824.47547633 Ry
     estimated scf accuracy    <          7.7E-10 Ry

     iteration # 13     ecut=    60.00 Ry     beta= 0.70
     Davidson diagonalization with overlap
     ethr =  1.92E-12,  avg # of iterations =  7.7

     total cpu time spent up to now is     1083.7 secs

     total energy              =   -1824.47547633 Ry
     estimated scf accuracy    <          1.0E-09 Ry

     iteration # 14     ecut=    60.00 Ry     beta= 0.70
     Davidson diagonalization with overlap
     ethr =  1.92E-12,  avg # of iterations =  1.6

     total cpu time spent up to now is     1088.2 secs

     End of self-consistent calculation

          k = 0.0000 0.0000 0.0000 (  4219 PWs)   bands (ev):

   -10.6568 -10.2654  -8.6239  -8.6239  -8.5767  -8.5600  -8.4961  -8.4540
    -8.4540  -8.4447  -8.4213  -7.1130   0.1538   1.0414   3.3602   3.3602
     5.8030   5.8088   5.8088   7.2673   9.2642  12.0319  13.1123  13.1123

          k = 0.0000 0.0000 0.1474 (  4207 PWs)   bands (ev):

   -10.6535 -10.2633  -8.6158  -8.6158  -8.5709  -8.5643  -8.4928  -8.4633
    -8.4633  -8.4457  -8.4246  -7.1112  -0.2989   1.6601   3.3885   3.3885
     5.7940   5.8026   5.8026   7.0613   9.1380  11.9805  12.2848  12.2848

          k = 0.0000 0.0000 0.2948 (  4200 PWs)   bands (ev):

   -10.6481 -10.2598  -8.6002  -8.6002  -8.5713  -8.5612  -8.4866  -8.4807
    -8.4807  -8.4476  -8.4307  -7.1082  -0.6983   2.3824   3.4353   3.4353
     5.7797   5.7916   5.7916   6.6300   9.0710  11.6113  11.7224  11.7224

          k = 0.0000 0.1958 0.0000 (  4183 PWs)   bands (ev):

   -10.5943 -10.2849  -8.6136  -8.6026  -8.5555  -8.5391  -8.5177  -8.4685
    -8.4485  -8.4298  -8.3301  -7.2215   0.0640   0.9396   3.4698   3.5799
     5.2224   5.5575   5.6945   7.2222  10.1750  11.3351  12.4171  13.2913

          k = 0.0000 0.1958 0.1474 (  4194 PWs)   bands (ev):

   -10.5929 -10.2838  -8.6100  -8.5965  -8.5501  -8.5420  -8.5216  -8.4731
    -8.4519  -8.4267  -8.3307  -7.2196  -0.2563   1.3314   3.4394   3.6034
     5.2957   5.5525   5.7403   7.0697  10.0142  10.7323  12.5788  12.9865

          k = 0.0000 0.1958 0.2948 (  4191 PWs)   bands (ev):

   -10.5906 -10.2821  -8.6020  -8.5862  -8.5470  -8.5381  -8.5331  -8.4845
    -8.4479  -8.4284  -8.3309  -7.2167  -0.5752   1.7958   3.3454   3.6424
     5.3903   5.5436   5.9946   6.6752   9.8556  10.1395  12.0725  13.1526

          k = 0.0000 0.3916 0.0000 (  4200 PWs)   bands (ev):

   -10.4660 -10.3527  -8.5879  -8.5590  -8.5545  -8.5263  -8.4982  -8.4630
    -8.4470  -8.4433  -8.0159  -7.5618   0.0803   0.5008   3.9763   4.1662
     4.7676   4.9194   5.5213   6.4728  10.4852  10.6116  12.6566  13.7142

          k = 0.0000 0.3916 0.1474 (  4212 PWs)   bands (ev):

   -10.4674 -10.3537  -8.5932  -8.5631  -8.5583  -8.5288  -8.4912  -8.4609
    -8.4431  -8.4334  -8.0134  -7.5593  -0.0282   0.5879   3.8253   4.1784
     4.6902   4.9203   5.7683   6.5251  10.2426  10.5987  12.9178  13.3527

          k = 0.0000 0.3916 0.2948 (  4218 PWs)   bands (ev):

   -10.4696 -10.3554  -8.5995  -8.5772  -8.5572  -8.5316  -8.4794  -8.4592
    -8.4308  -8.4254  -8.0089  -7.5553  -0.1611   0.6886   3.6323   4.1985
     4.5692   4.9215   6.2028   6.5237   9.9376  10.5210  13.0415  13.4962

          k = 0.1958 0.1958 0.0000 (  4205 PWs)   bands (ev):

   -10.5437 -10.2997  -8.6036  -8.5776  -8.5390  -8.5307  -8.5098  -8.4721
    -8.4435  -8.4360  -8.2415  -7.2978  -0.0953   0.7400   3.3047   4.1853
     4.9231   5.0557   6.1380   7.0833  10.6086  11.2397  11.7926  11.9974

          k = 0.1958 0.1958 0.1474 (  4205 PWs)   bands (ev):

   -10.5434 -10.2990  -8.5950  -8.5819  -8.5356  -8.5336  -8.5060  -8.4772
    -8.4530  -8.4340  -8.2333  -7.2947  -0.3020   0.9785   3.1740   4.2168
     5.0086   5.1972   6.1389   6.9270  10.4924  10.7685  11.2912  13.0037

          k = 0.1958 0.1958 0.2948 (  4204 PWs)   bands (ev):

   -10.5429 -10.2978  -8.5883  -8.5762  -8.5412  -8.5262  -8.5079  -8.4806
    -8.4704  -8.4322  -8.2201  -7.2897  -0.5351   1.2850   2.9736   4.2760
     4.9250   5.7163   6.1406   6.5875   9.9940  10.4462  11.3663  13.7190

          k = 0.1958 0.3916 0.0000 (  4213 PWs)   bands (ev):

   -10.4420 -10.3529  -8.5671  -8.5453  -8.5374  -8.5188  -8.4888  -8.4583
    -8.4416  -8.4400  -7.9580  -7.5653  -0.2014   0.1798   3.6883   4.4096
     4.9746   5.1390   5.9756   6.3966  10.2406  10.2620  12.4972  12.5197

          k = 0.1958 0.3916 0.1474 (  4203 PWs)   bands (ev):

   -10.4430 -10.3532  -8.5697  -8.5527  -8.5348  -8.5155  -8.4879  -8.4626
    -8.4430  -8.4367  -7.9473  -7.5586  -0.2562   0.2395   3.4814   4.2912
     5.0230   5.4029   5.9829   6.3738  10.1449  10.4508  12.0062  12.9453

          k = 0.1958 0.3916 0.2948 (  4207 PWs)   bands (ev):

   -10.4445 -10.3539  -8.5765  -8.5561  -8.5381  -8.5133  -8.4801  -8.4628
    -8.4483  -8.4365  -7.9303  -7.5478  -0.3286   0.3216   3.2318   4.1341
     5.0743   5.7162   6.0294   6.3142  10.0841  10.7500  11.8089  12.9919

          k = 0.3916 0.3916 0.0000 (  4199 PWs)   bands (ev):

   -10.3993 -10.3668  -8.5453  -8.5402  -8.5002  -8.4777  -8.4615  -8.4508
    -8.4334  -8.4299  -7.8033  -7.6343  -0.5802  -0.4148   3.9130   4.2742
     5.4149   5.9614   6.0206   6.3863   9.3203   9.3374  12.3623  12.6465

          k = 0.3916 0.3916 0.1474 (  4206 PWs)   bands (ev):

   -10.3993 -10.3664  -8.5429  -8.5344  -8.4988  -8.4787  -8.4676  -8.4569
    -8.4422  -8.4406  -7.7846  -7.6195  -0.5808  -0.3880   3.7348   4.1796
     5.4759   5.9120   5.9886   6.3861   9.5820   9.7103  12.1663  12.7946

          k = 0.3916 0.3916 0.2948 (  4186 PWs)   bands (ev):

   -10.3992 -10.3657  -8.5423  -8.5229  -8.4936  -8.4840  -8.4727  -8.4674
    -8.4605  -8.4542  -7.7559  -7.5964  -0.5795  -0.3456   3.4998   4.0416
     5.4619   5.7872   6.0227   6.3859  10.3752  10.6506  11.4853  12.2810

     the Fermi energy is     7.9652 ev

!    total energy              =   -1824.47547633 Ry
     total all-electron energy =    -83829.226192 Ry
     estimated scf accuracy    <          1.7E-10 Ry
     smearing contrib. (-TS)   =       0.00000000 Ry
     internal energy E=F+TS    =   -1824.47547633 Ry

     The total energy is F=E-TS. E is the sum of the following terms:
     one-electron contribution =    -129.33504777 Ry
     hartree contribution      =      95.78406370 Ry
     xc contribution           =    -103.60450491 Ry
     ewald contribution        =    -211.36957360 Ry
     one-center paw contrib.   =   -1475.95041375 Ry

     convergence has been achieved in  14 iterations

     Forces acting on atoms (cartesian axes, Ry/au):

     atom    1 type  1   force =     0.00000000    0.00000000    0.00361079
     atom    2 type  1   force =     0.00000000    0.00000000   -0.00361079
     atom    3 type  2   force =     0.00000000    0.00000000    0.00000000
     atom    4 type  2   force =     0.00000000    0.00000000    0.00000000

     Total force =     0.005106     Total SCF correction =     0.000001


     Computing stress (Cartesian axis) and pressure

          total   stress  (Ry/bohr**3)                   (kbar)     P=        5.27
   0.00003366   0.00000000   0.00000000            4.95        0.00        0.00
   0.00000000   0.00003366   0.00000000            0.00        4.95        0.00
   0.00000000   0.00000000   0.00004010            0.00        0.00        5.90

     Energy error            =      2.9E-04 Ry
     Gradient error          =      3.6E-03 Ry/Bohr
     Cell gradient error     =      5.9E+00 kbar

     number of scf cycles    =  12
     number of bfgs steps    =  11

     enthalpy           old  =   -1824.4751865148 Ry
     enthalpy           new  =   -1824.4754763281 Ry

     CASE: enthalpy          _new < enthalpy          _old

     new trust radius        =       0.0858634901 bohr
     new conv_thr            =       0.0000000003 Ry

     new unit-cell volume =    610.08755 a.u.^3 (    90.40565 Ang^3 )
     density =      8.19928 g/cm^3

CELL_PARAMETERS (alat=  7.51052751)
   1.021307111   0.000000000   0.000000000
   0.000000000   1.021307111   0.000000000
   0.000000000   0.000000000   1.380600828

ATOMIC_POSITIONS (crystal)
Pb               0.0000000000        0.5000000000        0.2171514282
Pb               0.5000000000        0.0000000000        0.7828485718
O                0.0000000000        0.0000000000        0.0000000000
O                0.5000000000        0.5000000000        0.0000000000



     Writing config-only to output data dir ./FeAl.save/ :
     XML data file
     NEW-OLD atomic charge density approx. for the potential
     New effective cutoffs (rho, wfc):  229.60   57.49

     Check: negative core charge=   -0.000009

     total cpu time spent up to now is     1094.5 secs

     Self-consistent Calculation

     iteration #  1     ecut=    60.00 Ry     beta= 0.70
     Davidson diagonalization with overlap
     ethr =  1.00E-06,  avg # of iterations = 10.4

     total cpu time spent up to now is     1110.9 secs

     total energy              =   -1824.47313421 Ry
     estimated scf accuracy    <       0.00352357 Ry

     iteration #  2     ecut=    60.00 Ry     beta= 0.70
     Davidson diagonalization with overlap
     ethr =  8.81E-06,  avg # of iterations =  4.9

     total cpu time spent up to now is     1119.6 secs

     total energy              =   -1824.47458598 Ry
     estimated scf accuracy    <       0.00526452 Ry

     iteration #  3     ecut=    60.00 Ry     beta= 0.70
     Davidson diagonalization with overlap
     ethr =  8.81E-06,  avg # of iterations =  2.4

     total cpu time spent up to now is     1124.8 secs

     total energy              =   -1824.47539361 Ry
     estimated scf accuracy    <       0.00116398 Ry

     iteration #  4     ecut=    60.00 Ry     beta= 0.70
     Davidson diagonalization with overlap
     ethr =  2.91E-06,  avg # of iterations =  1.3

     total cpu time spent up to now is     1129.3 secs

     total energy              =   -1824.47553513 Ry
     estimated scf accuracy    <       0.00049979 Ry

     iteration #  5     ecut=    60.00 Ry     beta= 0.70
     Davidson diagonalization with overlap
     ethr =  1.25E-06,  avg # of iterations =  1.4

     total cpu time spent up to now is     1133.7 secs

     total energy              =   -1824.47557397 Ry
     estimated scf accuracy    <       0.00027851 Ry

     iteration #  6     ecut=    60.00 Ry     beta= 0.70
     Davidson diagonalization with overlap
     ethr =  6.96E-07,  avg # of iterations =  1.1

     total cpu time spent up to now is     1138.1 secs

     total energy              =   -1824.47558999 Ry
     estimated scf accuracy    <       0.00006069 Ry

     iteration #  7     ecut=    60.00 Ry     beta= 0.70
     Davidson diagonalization with overlap
     ethr =  1.52E-07,  avg # of iterations =  4.7

     total cpu time spent up to now is     1144.1 secs

     total energy              =   -1824.47560493 Ry
     estimated scf accuracy    <       0.00000107 Ry

     iteration #  8     ecut=    60.00 Ry     beta= 0.70
     Davidson diagonalization with overlap
     ethr =  2.68E-09,  avg # of iterations =  9.9

     total cpu time spent up to now is     1157.7 secs

     total energy              =   -1824.47561051 Ry
     estimated scf accuracy    <       0.00000208 Ry

     iteration #  9     ecut=    60.00 Ry     beta= 0.70
     Davidson diagonalization with overlap
     ethr =  2.68E-09,  avg # of iterations =  1.0

     total cpu time spent up to now is     1161.8 secs

     total energy              =   -1824.47560998 Ry
     estimated scf accuracy    <       0.00000231 Ry

     iteration # 10     ecut=    60.00 Ry     beta= 0.70
     Davidson diagonalization with overlap
     ethr =  2.68E-09,  avg # of iterations =  2.2

     total cpu time spent up to now is     1166.6 secs

     total energy              =   -1824.47561002 Ry
     estimated scf accuracy    <       0.00000022 Ry

     iteration # 11     ecut=    60.00 Ry     beta= 0.70
     Davidson diagonalization with overlap
     ethr =  5.40E-10,  avg # of iterations =  4.2

     total cpu time spent up to now is     1173.0 secs

     total energy              =   -1824.47561010 Ry
     estimated scf accuracy    <       0.00000001 Ry

     iteration # 12     ecut=    60.00 Ry     beta= 0.70
     Davidson diagonalization with overlap
     ethr =  2.87E-11,  avg # of iterations =  5.7

     total cpu time spent up to now is     1181.3 secs

     total energy              =   -1824.47561010 Ry
     estimated scf accuracy    <       0.00000003 Ry

     iteration # 13     ecut=    60.00 Ry     beta= 0.70
     Davidson diagonalization with overlap
     ethr =  2.87E-11,  avg # of iterations =  1.8

     total cpu time spent up to now is     1186.0 secs

     total energy              =   -1824.47561010 Ry
     estimated scf accuracy    <       0.00000004 Ry

     iteration # 14     ecut=    60.00 Ry     beta= 0.70
     Davidson diagonalization with overlap
     ethr =  2.87E-11,  avg # of iterations =  3.7

     total cpu time spent up to now is     1191.9 secs

     total energy              =   -1824.47561013 Ry
     estimated scf accuracy    <          2.0E-09 Ry

     iteration # 15     ecut=    60.00 Ry     beta= 0.70
     Davidson diagonalization with overlap
     ethr =  4.95E-12,  avg # of iterations =  8.3

     total cpu time spent up to now is     1204.9 secs

     total energy              =   -1824.47561012 Ry
     estimated scf accuracy    <       0.00000012 Ry

     iteration # 16     ecut=    60.00 Ry     beta= 0.70
     Davidson diagonalization with overlap
     ethr =  4.95E-12,  avg # of iterations =  5.1

     total cpu time spent up to now is     1212.4 secs

     total energy              =   -1824.47561011 Ry
     estimated scf accuracy    <       0.00000005 Ry

     iteration # 17     ecut=    60.00 Ry     beta= 0.70
     Davidson diagonalization with overlap
     ethr =  4.95E-12,  avg # of iterations =  6.6

     total cpu time spent up to now is     1221.1 secs

     total energy              =   -1824.47561011 Ry
     estimated scf accuracy    <          1.9E-09 Ry

     iteration # 18     ecut=    60.00 Ry     beta= 0.70
     Davidson diagonalization with overlap
     ethr =  4.79E-12,  avg # of iterations =  1.6

     total cpu time spent up to now is     1225.7 secs

     total energy              =   -1824.47561011 Ry
     estimated scf accuracy    <          9.0E-10 Ry

     iteration # 19     ecut=    60.00 Ry     beta= 0.70
     Davidson diagonalization with overlap
     ethr =  2.25E-12,  avg # of iterations =  2.7

     total cpu time spent up to now is     1230.7 secs

     total energy              =   -1824.47561011 Ry
     estimated scf accuracy    <          3.2E-10 Ry

     iteration # 20     ecut=    60.00 Ry     beta= 0.70
     Davidson diagonalization with overlap
     ethr =  7.99E-13,  avg # of iterations =  3.0

     total cpu time spent up to now is     1235.6 secs

     total energy              =   -1824.47561011 Ry
     estimated scf accuracy    <          3.5E-10 Ry

     iteration # 21     ecut=    60.00 Ry     beta= 0.70
     Davidson diagonalization with overlap
     ethr =  7.99E-13,  avg # of iterations =  1.9

     total cpu time spent up to now is     1240.7 secs

     End of self-consistent calculation

          k = 0.0000 0.0000 0.0000 (  4219 PWs)   bands (ev):

   -10.8218 -10.4324  -8.8107  -8.8107  -8.7642  -8.7536  -8.6868  -8.6471
    -8.6471  -8.6382  -8.6160  -7.3116  -0.0821   0.8955   3.2022   3.2022
     5.6199   5.6435   5.6435   7.0757   9.0205  11.7115  12.9620  12.9620

          k = 0.0000 0.0000 0.1449 (  4207 PWs)   bands (ev):

   -10.8191 -10.4307  -8.8036  -8.8036  -8.7596  -8.7571  -8.6841  -8.6552
    -8.6552  -8.6387  -8.6187  -7.3100  -0.4807   1.4523   3.2266   3.2266
     5.6124   5.6376   5.6376   6.8550   8.9255  11.7013  12.1208  12.1208

          k = 0.0000 0.0000 0.2897 (  4200 PWs)   bands (ev):

   -10.8146 -10.4279  -8.7903  -8.7903  -8.7629  -8.7520  -8.6792  -8.6700
    -8.6700  -8.6398  -8.6236  -7.3076  -0.8507   2.1268   3.2669   3.2669
     5.6002   5.6276   5.6276   6.4185   8.8854  11.4168  11.5833  11.5833

          k = 0.0000 0.1958 0.0000 (  4183 PWs)   bands (ev):

   -10.7607 -10.4527  -8.8013  -8.7904  -8.7433  -8.7323  -8.7094  -8.6611
    -8.6403  -8.6237  -8.5222  -7.4183  -0.1543   0.7861   3.2970   3.4206
     5.0492   5.3920   5.5163   7.0215   9.9306  11.1718  12.1226  13.1378

          k = 0.0000 0.1958 0.1449 (  4194 PWs)   bands (ev):

   -10.7595 -10.4519  -8.7981  -8.7854  -8.7387  -8.7347  -8.7130  -8.6651
    -8.6431  -8.6212  -8.5225  -7.4167  -0.4387   1.1411   3.2670   3.4409
     5.1177   5.3873   5.5622   6.8639   9.7907  10.5689  12.4143  12.6670

          k = 0.0000 0.1958 0.2897 (  4191 PWs)   bands (ev):

   -10.7577 -10.4505  -8.7912  -8.7770  -8.7388  -8.7286  -8.7225  -8.6747
    -8.6403  -8.6223  -8.5224  -7.4143  -0.7333   1.5750   3.1811   3.4744
     5.2100   5.3791   5.8036   6.4667   9.6550   9.9983  11.9299  12.8805

          k = 0.0000 0.3917 0.0000 (  4200 PWs)   bands (ev):

   -10.6346 -10.5218  -8.7780  -8.7491  -8.7463  -8.7184  -8.6871  -8.6541
    -8.6380  -8.6353  -8.2066  -7.7547  -0.1105   0.3299   3.7874   4.0040
     4.5816   4.7547   5.3481   6.2854  10.2740  10.3604  12.3709  13.5417

          k = 0.0000 0.3917 0.1449 (  4212 PWs)   bands (ev):

   -10.6358 -10.5227  -8.7822  -8.7535  -8.7490  -8.7207  -8.6809  -8.6521
    -8.6350  -8.6270  -8.2043  -7.7525  -0.2085   0.4086   3.6518   4.0144
     4.5129   4.7552   5.5801   6.3309  10.0306  10.3548  12.6356  13.1796

          k = 0.0000 0.3917 0.2897 (  4218 PWs)   bands (ev):

   -10.6378 -10.5241  -8.7874  -8.7652  -8.7486  -8.7234  -8.6705  -8.6504
    -8.6249  -8.6203  -8.2004  -7.7491  -0.3312   0.5018   3.4758   4.0315
     4.4052   4.7559   5.9966   6.3212   9.7328  10.2843  12.8838  13.1913

          k = 0.1958 0.1958 0.0000 (  4205 PWs)   bands (ev):

   -10.7112 -10.4682  -8.7906  -8.7678  -8.7271  -8.7235  -8.7008  -8.6642
    -8.6372  -8.6293  -8.4312  -7.4928  -0.2977   0.5814   3.1178   4.0263
     4.7599   4.8711   5.9685   6.8794  10.3573  11.0866  11.5295  11.8221

          k = 0.1958 0.1958 0.1449 (  4205 PWs)   bands (ev):

   -10.7110 -10.4676  -8.7830  -8.7717  -8.7260  -8.7242  -8.6978  -8.6685
    -8.6455  -8.6276  -8.4241  -7.4902  -0.4831   0.7986   2.9994   4.0543
     4.8292   5.0154   5.9692   6.7240  10.2665  10.5780  11.1363  12.7483

          k = 0.1958 0.1958 0.2897 (  4204 PWs)   bands (ev):

   -10.7106 -10.4667  -8.7773  -8.7670  -8.7322  -8.7162  -8.6991  -8.6718
    -8.6606  -8.6261  -8.4126  -7.4860  -0.6982   1.0828   2.8168   4.1062
     4.7556   5.5088   5.9704   6.3848   9.8461  10.2298  11.2103  13.4241

          k = 0.1958 0.3917 0.0000 (  4213 PWs)   bands (ev):

   -10.6115 -10.5226  -8.7567  -8.7360  -8.7291  -8.7098  -8.6785  -8.6499
    -8.6342  -8.6330  -8.1462  -7.7563  -0.3820   0.0117   3.4915   4.2190
     4.8129   4.9732   5.8019   6.2034  10.0272  10.0535  12.2632  12.3316

          k = 0.1958 0.3917 0.1449 (  4203 PWs)   bands (ev):

   -10.6123 -10.5229  -8.7591  -8.7423  -8.7268  -8.7073  -8.6774  -8.6535
    -8.6358  -8.6303  -8.1371  -7.7505  -0.4324   0.0655   3.3068   4.1146
     4.8555   5.2181   5.8082   6.1811   9.9331  10.2368  11.8111  12.7484

          k = 0.1958 0.3917 0.2897 (  4207 PWs)   bands (ev):

   -10.6136 -10.5234  -8.7650  -8.7448  -8.7300  -8.7054  -8.6705  -8.6536
    -8.6408  -8.6303  -8.1225  -7.7414  -0.5001   0.1399   3.0794   3.9732
     4.9030   5.5253   5.8486   6.1199   9.8737  10.5131  11.6368  12.7695

          k = 0.3917 0.3917 0.0000 (  4199 PWs)   bands (ev):

   -10.5701 -10.5377  -8.7357  -8.7303  -8.6902  -8.6694  -8.6535  -8.6431
    -8.6272  -8.6245  -7.9885  -7.8213  -0.7489  -0.5804   3.7143   4.0828
     5.2230   5.7963   5.8152   6.2166   9.1440   9.1928  12.1422  12.4329

          k = 0.3917 0.3917 0.1449 (  4206 PWs)   bands (ev):

   -10.5700 -10.5373  -8.7338  -8.7252  -8.6889  -8.6704  -8.6585  -8.6486
    -8.6351  -8.6336  -7.9727  -7.8087  -0.7505  -0.5568   3.5556   3.9994
     5.2804   5.7189   5.8205   6.2164   9.3972   9.5492  11.9372  12.5974

          k = 0.3917 0.3917 0.2897 (  4186 PWs)   bands (ev):

   -10.5699 -10.5365  -8.7330  -8.7154  -8.6840  -8.6750  -8.6628  -8.6576
    -8.6512  -8.6459  -7.9481  -7.7889  -0.7512  -0.5197   3.3433   3.8766
     5.2802   5.6053   5.8516   6.2162  10.1555  10.4628  11.2526  11.9835

     the Fermi energy is     7.7910 ev

!    total energy              =   -1824.47561011 Ry
     total all-electron energy =    -83829.226326 Ry
     estimated scf accuracy    <          5.1E-11 Ry
     smearing contrib. (-TS)   =       0.00000000 Ry
     internal energy E=F+TS    =   -1824.47561011 Ry

     The total energy is F=E-TS. E is the sum of the following terms:
     one-electron contribution =    -134.53648305 Ry
     hartree contribution      =      98.10817560 Ry
     xc contribution           =    -103.59513287 Ry
     ewald contribution        =    -208.50190697 Ry
     one-center paw contrib.   =   -1475.95026282 Ry

     convergence has been achieved in  21 iterations

     Forces acting on atoms (cartesian axes, Ry/au):

     atom    1 type  1   force =     0.00000000    0.00000000    0.00121121
     atom    2 type  1   force =     0.00000000    0.00000000   -0.00121121
     atom    3 type  2   force =     0.00000000    0.00000000    0.00000000
     atom    4 type  2   force =     0.00000000    0.00000000    0.00000000

     Total force =     0.001713     Total SCF correction =     0.000002


     Computing stress (Cartesian axis) and pressure

          total   stress  (Ry/bohr**3)                   (kbar)     P=        2.26
   0.00001663   0.00000000   0.00000000            2.45        0.00        0.00
   0.00000000   0.00001663   0.00000000            0.00        2.45        0.00
   0.00000000   0.00000000   0.00001282            0.00        0.00        1.89

     Energy error            =      1.3E-04 Ry
     Gradient error          =      1.2E-03 Ry/Bohr
     Cell gradient error     =      2.4E+00 kbar

     number of scf cycles    =  13
     number of bfgs steps    =  12

     enthalpy           old  =   -1824.4754763281 Ry
     enthalpy           new  =   -1824.4756101059 Ry

     CASE: enthalpy          _new < enthalpy          _old

     new trust radius        =       0.0298802047 bohr
     new conv_thr            =       0.0000000001 Ry

     new unit-cell volume =    614.72243 a.u.^3 (    91.09247 Ang^3 )
     density =      8.13746 g/cm^3

CELL_PARAMETERS (alat=  7.51052751)
   1.022092768   0.000000000   0.000000000
   0.000000000   1.022092768   0.000000000
   0.000000000   0.000000000   1.388951580

ATOMIC_POSITIONS (crystal)
Pb               0.0000000000        0.5000000000        0.2160164623
Pb               0.5000000000        0.0000000000        0.7839835377
O                0.0000000000        0.0000000000        0.0000000000
O                0.5000000000        0.5000000000        0.0000000000



     Writing config-only to output data dir ./FeAl.save/ :
     XML data file
     NEW-OLD atomic charge density approx. for the potential
     New effective cutoffs (rho, wfc):  229.23   57.40

     Check: negative core charge=   -0.000009

     total cpu time spent up to now is     1247.0 secs

     Self-consistent Calculation

     iteration #  1     ecut=    60.00 Ry     beta= 0.70
     Davidson diagonalization with overlap
     ethr =  1.00E-06,  avg # of iterations =  7.7

     total cpu time spent up to now is     1258.7 secs

     total energy              =   -1824.47521286 Ry
     estimated scf accuracy    <       0.00058507 Ry

     iteration #  2     ecut=    60.00 Ry     beta= 0.70
     Davidson diagonalization with overlap
     ethr =  1.46E-06,  avg # of iterations =  4.9

     total cpu time spent up to now is     1267.0 secs

     total energy              =   -1824.47544427 Ry
     estimated scf accuracy    <       0.00084355 Ry

     iteration #  3     ecut=    60.00 Ry     beta= 0.70
     Davidson diagonalization with overlap
     ethr =  1.46E-06,  avg # of iterations =  2.4

     total cpu time spent up to now is     1272.3 secs

     total energy              =   -1824.47558926 Ry
     estimated scf accuracy    <       0.00018563 Ry

     iteration #  4     ecut=    60.00 Ry     beta= 0.70
     Davidson diagonalization with overlap
     ethr =  4.64E-07,  avg # of iterations =  1.8

     total cpu time spent up to now is     1277.0 secs

     total energy              =   -1824.47561576 Ry
     estimated scf accuracy    <       0.00007345 Ry

     iteration #  5     ecut=    60.00 Ry     beta= 0.70
     Davidson diagonalization with overlap
     ethr =  1.84E-07,  avg # of iterations =  1.9

     total cpu time spent up to now is     1281.7 secs

     total energy              =   -1824.47562342 Ry
     estimated scf accuracy    <       0.00004340 Ry

     iteration #  6     ecut=    60.00 Ry     beta= 0.70
     Davidson diagonalization with overlap
     ethr =  1.08E-07,  avg # of iterations =  1.4

     total cpu time spent up to now is     1286.1 secs

     total energy              =   -1824.47562690 Ry
     estimated scf accuracy    <       0.00001261 Ry

     iteration #  7     ecut=    60.00 Ry     beta= 0.70
     Davidson diagonalization with overlap
     ethr =  3.15E-08,  avg # of iterations =  4.4

     total cpu time spent up to now is     1291.8 secs

     total energy              =   -1824.47562989 Ry
     estimated scf accuracy    <       0.00000045 Ry

     iteration #  8     ecut=    60.00 Ry     beta= 0.70
     Davidson diagonalization with overlap
     ethr =  1.14E-09,  avg # of iterations =  7.8

     total cpu time spent up to now is     1302.9 secs

     total energy              =   -1824.47563081 Ry
     estimated scf accuracy    <       0.00000009 Ry

     iteration #  9     ecut=    60.00 Ry     beta= 0.70
     Davidson diagonalization with overlap
     ethr =  2.36E-10,  avg # of iterations =  3.6

     total cpu time spent up to now is     1308.0 secs

     total energy              =   -1824.47563079 Ry
     estimated scf accuracy    <       0.00000010 Ry

     iteration # 10     ecut=    60.00 Ry     beta= 0.70
     Davidson diagonalization with overlap
     ethr =  2.36E-10,  avg # of iterations =  3.1

     total cpu time spent up to now is     1313.0 secs

     total energy              =   -1824.47563080 Ry
     estimated scf accuracy    <       0.00000003 Ry

     iteration # 11     ecut=    60.00 Ry     beta= 0.70
     Davidson diagonalization with overlap
     ethr =  7.20E-11,  avg # of iterations =  4.3

     total cpu time spent up to now is     1318.8 secs

     total energy              =   -1824.47563080 Ry
     estimated scf accuracy    <       0.00000005 Ry

     iteration # 12     ecut=    60.00 Ry     beta= 0.70
     Davidson diagonalization with overlap
     ethr =  7.20E-11,  avg # of iterations =  1.1

     total cpu time spent up to now is     1323.1 secs

     total energy              =   -1824.47563080 Ry
     estimated scf accuracy    <       0.00000003 Ry

     iteration # 13     ecut=    60.00 Ry     beta= 0.70
     Davidson diagonalization with overlap
     ethr =  6.53E-11,  avg # of iterations =  1.6

     total cpu time spent up to now is     1327.5 secs

     total energy              =   -1824.47563080 Ry
     estimated scf accuracy    <          7.0E-09 Ry

     iteration # 14     ecut=    60.00 Ry     beta= 0.70
     Davidson diagonalization with overlap
     ethr =  1.76E-11,  avg # of iterations =  2.2

     total cpu time spent up to now is     1332.3 secs

     total energy              =   -1824.47563080 Ry
     estimated scf accuracy    <          6.1E-09 Ry

     iteration # 15     ecut=    60.00 Ry     beta= 0.70
     Davidson diagonalization with overlap
     ethr =  1.54E-11,  avg # of iterations =  1.0

     total cpu time spent up to now is     1336.7 secs

     total energy              =   -1824.47563080 Ry
     estimated scf accuracy    <          5.9E-09 Ry

     iteration # 16     ecut=    60.00 Ry     beta= 0.70
     Davidson diagonalization with overlap
     ethr =  1.47E-11,  avg # of iterations =  1.0

     total cpu time spent up to now is     1340.8 secs

     total energy              =   -1824.47563080 Ry
     estimated scf accuracy    <          5.5E-09 Ry

     iteration # 17     ecut=    60.00 Ry     beta= 0.70
     Davidson diagonalization with overlap
     ethr =  1.38E-11,  avg # of iterations =  1.1

     total cpu time spent up to now is     1345.0 secs

     total energy              =   -1824.47563080 Ry
     estimated scf accuracy    <          5.8E-09 Ry

     iteration # 18     ecut=    60.00 Ry     beta= 0.70
     Davidson diagonalization with overlap
     ethr =  1.38E-11,  avg # of iterations =  2.3

     total cpu time spent up to now is     1350.0 secs

     total energy              =   -1824.47563080 Ry
     estimated scf accuracy    <       0.00000001 Ry

     iteration # 19     ecut=    60.00 Ry     beta= 0.70
     Davidson diagonalization with overlap
     ethr =  1.38E-11,  avg # of iterations =  1.0

     total cpu time spent up to now is     1354.2 secs

     total energy              =   -1824.47563080 Ry
     estimated scf accuracy    <          7.4E-09 Ry

     iteration # 20     ecut=    60.00 Ry     beta= 0.70
     Davidson diagonalization with overlap
     ethr =  1.38E-11,  avg # of iterations =  1.0

     total cpu time spent up to now is     1358.3 secs

     total energy              =   -1824.47563081 Ry
     estimated scf accuracy    <          5.5E-09 Ry

     iteration # 21     ecut=    60.00 Ry     beta= 0.70
     Davidson diagonalization with overlap
     ethr =  1.38E-11,  avg # of iterations =  5.0

     total cpu time spent up to now is     1366.5 secs

     total energy              =   -1824.47563080 Ry
     estimated scf accuracy    <       0.00000002 Ry

     iteration # 22     ecut=    60.00 Ry     beta= 0.70
     Davidson diagonalization with overlap
     ethr =  1.38E-11,  avg # of iterations =  2.2

     total cpu time spent up to now is     1371.3 secs

     total energy              =   -1824.47563080 Ry
     estimated scf accuracy    <          3.4E-09 Ry

     iteration # 23     ecut=    60.00 Ry     beta= 0.70
     Davidson diagonalization with overlap
     ethr =  8.42E-12,  avg # of iterations =  4.6

     total cpu time spent up to now is     1377.6 secs

     total energy              =   -1824.47563080 Ry
     estimated scf accuracy    <          9.5E-10 Ry

     iteration # 24     ecut=    60.00 Ry     beta= 0.70
     Davidson diagonalization with overlap
     ethr =  2.37E-12,  avg # of iterations =  2.7

     total cpu time spent up to now is     1382.4 secs

     total energy              =   -1824.47563080 Ry
     estimated scf accuracy    <          5.7E-10 Ry

     iteration # 25     ecut=    60.00 Ry     beta= 0.70
     Davidson diagonalization with overlap
     ethr =  1.42E-12,  avg # of iterations =  1.7

     total cpu time spent up to now is     1386.0 secs

     End of self-consistent calculation

          k = 0.0000 0.0000 0.0000 (  4219 PWs)   bands (ev):

   -10.8896 -10.5061  -8.8953  -8.8953  -8.8494  -8.8395  -8.7731  -8.7345
    -8.7345  -8.7253  -8.7035  -7.4013  -0.1758   0.8281   3.1310   3.1310
     5.5400   5.5648   5.5648   6.9847   8.9101  11.5735  12.8860  12.8860

          k = 0.0000 0.0000 0.1440 (  4207 PWs)   bands (ev):

   -10.8870 -10.5045  -8.8886  -8.8886  -8.8453  -8.8427  -8.7705  -8.7421
    -8.7421  -8.7256  -8.7059  -7.3999  -0.5556   1.3616   3.1542   3.1542
     5.5328   5.5592   5.5592   6.7635   8.8238  11.5734  12.0411  12.0411

          k = 0.0000 0.0000 0.2880 (  4200 PWs)   bands (ev):

   -10.8829 -10.5019  -8.8761  -8.8761  -8.8481  -8.8385  -8.7661  -8.7560
    -8.7560  -8.7264  -8.7104  -7.3976  -0.9142   2.0150   3.1923   3.1923
     5.5213   5.5495   5.5495   6.3329   8.7901  11.3151  11.5130  11.5130

          k = 0.0000 0.1957 0.0000 (  4183 PWs)   bands (ev):

   -10.8293 -10.5262  -8.8863  -8.8753  -8.8288  -8.8183  -8.7960  -8.7483
    -8.7271  -8.7108  -8.6091  -7.5076  -0.2437   0.7140   3.2223   3.3486
     4.9736   5.3140   5.4377   6.9299   9.8190  11.0928  11.9973  13.0593

          k = 0.0000 0.1957 0.1440 (  4194 PWs)   bands (ev):

   -10.8283 -10.5254  -8.8832  -8.8706  -8.8246  -8.8205  -8.7995  -8.7521
    -8.7296  -8.7086  -8.6092  -7.5062  -0.5151   1.0548   3.1922   3.3678
     5.0409   5.3094   5.4835   6.7726   9.6851  10.4900  12.3333  12.5289

          k = 0.0000 0.1957 0.2880 (  4191 PWs)   bands (ev):

   -10.8266 -10.5241  -8.8767  -8.8629  -8.8243  -8.8152  -8.8082  -8.7611
    -8.7272  -8.7096  -8.6089  -7.5039  -0.8001   1.4753   3.1088   3.3996
     5.1317   5.3015   5.7196   6.3796   9.5556   9.9275  11.8573  12.7552

          k = 0.0000 0.3914 0.0000 (  4200 PWs)   bands (ev):

   -10.7054 -10.5943  -8.8638  -8.8347  -8.8328  -8.8044  -8.7733  -8.7409
    -8.7244  -8.7219  -8.2933  -7.8427  -0.1936   0.2510   3.7086   3.9299
     4.5039   4.6783   5.2742   6.2042  10.1809  10.2525  12.2414  13.4548

          k = 0.0000 0.3914 0.1440 (  4212 PWs)   bands (ev):

   -10.7065 -10.5951  -8.8677  -8.8395  -8.8347  -8.8067  -8.7673  -8.7390
    -8.7216  -8.7142  -8.2911  -7.8407  -0.2875   0.3266   3.5780   3.9398
     4.4377   4.6787   5.5006   6.2471   9.9373  10.2490  12.5079  13.0930

          k = 0.0000 0.3914 0.2880 (  4218 PWs)   bands (ev):

   -10.7083 -10.5965  -8.8725  -8.8504  -8.8346  -8.8093  -8.7574  -8.7372
    -8.7122  -8.7079  -8.2873  -7.8375  -0.4057   0.4171   3.4073   3.9560
     4.3337   4.6793   5.9087   6.2349   9.6431  10.1796  12.8031  13.0570

          k = 0.1957 0.1957 0.0000 (  4205 PWs)   bands (ev):

   -10.7807 -10.5414  -8.8752  -8.8536  -8.8129  -8.8096  -8.7870  -8.7514
    -8.7247  -8.7163  -8.5174  -7.5819  -0.3827   0.5064   3.0399   3.9535
     4.6892   4.7919   5.8893   6.7881  10.2468  11.0146  11.4106  11.7363

          k = 0.1957 0.1957 0.1440 (  4205 PWs)   bands (ev):

   -10.7805 -10.5409  -8.8680  -8.8573  -8.8120  -8.8101  -8.7842  -8.7554
    -8.7326  -8.7147  -8.5106  -7.5794  -0.5602   0.7153   2.9254   3.9803
     4.7518   4.9380   5.8899   6.6345  10.1629  10.4870  11.0639  12.6307

          k = 0.1957 0.1957 0.2880 (  4204 PWs)   bands (ev):

   -10.7802 -10.5400  -8.8627  -8.8530  -8.8178  -8.8027  -8.7855  -8.7585
    -8.7467  -8.7132  -8.4997  -7.5755  -0.7680   0.9903   2.7488   4.0296
     4.6815   5.4199   5.8910   6.2993   9.7723  10.1261  11.1375  13.2915

          k = 0.1957 0.3914 0.0000 (  4213 PWs)   bands (ev):

   -10.6826 -10.5951  -8.8423  -8.8219  -8.8154  -8.7958  -8.7650  -8.7369
    -8.7210  -8.7201  -8.2325  -7.8441  -0.4616  -0.0662   3.4110   4.1394
     4.7385   4.9024   5.7222   6.1195   9.9270   9.9703  12.1497  12.2420

          k = 0.1957 0.3914 0.1440 (  4203 PWs)   bands (ev):

   -10.6833 -10.5954  -8.8447  -8.8278  -8.8132  -8.7935  -8.7637  -8.7401
    -8.7229  -8.7174  -8.2239  -7.8387  -0.5102  -0.0145   3.2339   4.0398
     4.7789   5.1394   5.7284   6.0973   9.8402  10.1442  11.7169  12.6500

          k = 0.1957 0.3914 0.2880 (  4207 PWs)   bands (ev):

   -10.6846 -10.5958  -8.8502  -8.8301  -8.8163  -8.7918  -8.7572  -8.7402
    -8.7276  -8.7176  -8.2102  -7.8301  -0.5756   0.0574   3.0140   3.9039
     4.8247   5.4408   5.7675   6.0364   9.7814  10.4101  11.5550  12.6641

          k = 0.3914 0.3914 0.0000 (  4199 PWs)   bands (ev):

   -10.6420 -10.6101  -8.8215  -8.8159  -8.7761  -8.7558  -8.7408  -8.7305
    -8.7147  -8.7123  -8.0746  -7.9083  -0.8245  -0.6559   3.6340   4.0045
     5.1418   5.7188   5.7275   6.1368   9.0652   9.1255  12.0468  12.3354

          k = 0.3914 0.3914 0.1440 (  4206 PWs)   bands (ev):

   -10.6419 -10.6096  -8.8197  -8.8111  -8.7748  -8.7568  -8.7454  -8.7357
    -8.7223  -8.7207  -8.0598  -7.8965  -0.8263  -0.6334   3.4820   3.9250
     5.1972   5.6354   5.7419   6.1366   9.3152   9.4760  11.8353  12.5037

          k = 0.3914 0.3914 0.2880 (  4186 PWs)   bands (ev):

   -10.6417 -10.6089  -8.8188  -8.8018  -8.7702  -8.7612  -8.7494  -8.7442
    -8.7375  -8.7325  -8.0367  -7.8780  -0.8273  -0.5980   3.2774   3.8074
     5.2001   5.5256   5.7719   6.1364  10.0597  10.3799  11.1516  11.8596

     the Fermi energy is     7.7088 ev

!    total energy              =   -1824.47563080 Ry
     total all-electron energy =    -83829.226347 Ry
     estimated scf accuracy    <          1.2E-10 Ry
     smearing contrib. (-TS)   =       0.00000000 Ry
     internal energy E=F+TS    =   -1824.47563080 Ry

     The total energy is F=E-TS. E is the sum of the following terms:
     one-electron contribution =    -136.62454154 Ry
     hartree contribution      =      99.02809552 Ry
     xc contribution           =    -103.58962195 Ry
     ewald contribution        =    -207.33939873 Ry
     one-center paw contrib.   =   -1475.95016411 Ry

     convergence has been achieved in  25 iterations

     Forces acting on atoms (cartesian axes, Ry/au):

     atom    1 type  1   force =     0.00000000    0.00000000    0.00023277
     atom    2 type  1   force =     0.00000000    0.00000000   -0.00023277
     atom    3 type  2   force =     0.00000000    0.00000000    0.00000000
     atom    4 type  2   force =     0.00000000    0.00000000    0.00000000

     Total force =     0.000329     Total SCF correction =     0.000001


     Computing stress (Cartesian axis) and pressure

          total   stress  (Ry/bohr**3)                   (kbar)     P=        0.55
   0.00000448   0.00000000   0.00000000            0.66        0.00        0.00
   0.00000000   0.00000448   0.00000000            0.00        0.66        0.00
   0.00000000   0.00000000   0.00000231            0.00        0.00        0.34

     Energy error            =      2.1E-05 Ry
     Gradient error          =      2.3E-04 Ry/Bohr
     Cell gradient error     =      6.6E-01 kbar

     number of scf cycles    =  14
     number of bfgs steps    =  13

     enthalpy           old  =   -1824.4756101059 Ry
     enthalpy           new  =   -1824.4756308030 Ry

     CASE: enthalpy          _new < enthalpy          _old

     new trust radius        =       0.0052320841 bohr
     new conv_thr            =            1.0E-10 Ry

     new unit-cell volume =    615.83672 a.u.^3 (    91.25759 Ang^3 )
     density =      8.12274 g/cm^3

CELL_PARAMETERS (alat=  7.51052751)
   1.022479425   0.000000000   0.000000000
   0.000000000   1.022479425   0.000000000
   0.000000000   0.000000000   1.390417102

ATOMIC_POSITIONS (crystal)
Pb               0.0000000000        0.5000000000        0.2157628063
Pb               0.5000000000        0.0000000000        0.7842371937
O                0.0000000000        0.0000000000        0.0000000000
O                0.5000000000        0.5000000000        0.0000000000



     Writing config-only to output data dir ./FeAl.save/ :
     XML data file
     NEW-OLD atomic charge density approx. for the potential
     New effective cutoffs (rho, wfc):  229.06   57.35

     Check: negative core charge=   -0.000009

     total cpu time spent up to now is     1391.5 secs

     Self-consistent Calculation

     iteration #  1     ecut=    60.00 Ry     beta= 0.70
     Davidson diagonalization with overlap
     ethr =  1.00E-06,  avg # of iterations =  3.4

     Threshold (ethr) on eigenvalues was too large:
     Diagonalizing with lowered threshold

     Davidson diagonalization with overlap
     ethr =  5.96E-08,  avg # of iterations =  4.7

     total cpu time spent up to now is     1404.0 secs

     total energy              =   -1824.47561036 Ry
     estimated scf accuracy    <       0.00003008 Ry

     iteration #  2     ecut=    60.00 Ry     beta= 0.70
     Davidson diagonalization with overlap
     ethr =  7.52E-08,  avg # of iterations =  5.4

     total cpu time spent up to now is     1412.7 secs

     total energy              =   -1824.47562141 Ry
     estimated scf accuracy    <       0.00004602 Ry

     iteration #  3     ecut=    60.00 Ry     beta= 0.70
     Davidson diagonalization with overlap
     ethr =  7.52E-08,  avg # of iterations =  2.6

     total cpu time spent up to now is     1417.8 secs

     total energy              =   -1824.47562971 Ry
     estimated scf accuracy    <       0.00000952 Ry

     iteration #  4     ecut=    60.00 Ry     beta= 0.70
     Davidson diagonalization with overlap
     ethr =  2.38E-08,  avg # of iterations =  1.9

     total cpu time spent up to now is     1422.7 secs

     total energy              =   -1824.47563120 Ry
     estimated scf accuracy    <       0.00000358 Ry

     iteration #  5     ecut=    60.00 Ry     beta= 0.70
     Davidson diagonalization with overlap
     ethr =  8.95E-09,  avg # of iterations =  1.9

     total cpu time spent up to now is     1427.4 secs

     total energy              =   -1824.47563162 Ry
     estimated scf accuracy    <       0.00000211 Ry

     iteration #  6     ecut=    60.00 Ry     beta= 0.70
     Davidson diagonalization with overlap
     ethr =  5.27E-09,  avg # of iterations =  2.2

     total cpu time spent up to now is     1432.3 secs

     total energy              =   -1824.47563186 Ry
     estimated scf accuracy    <       0.00000071 Ry

     iteration #  7     ecut=    60.00 Ry     beta= 0.70
     Davidson diagonalization with overlap
     ethr =  1.78E-09,  avg # of iterations =  4.1

     total cpu time spent up to now is     1437.9 secs

     total energy              =   -1824.47563201 Ry
     estimated scf accuracy    <       0.00000001 Ry

     iteration #  8     ecut=    60.00 Ry     beta= 0.70
     Davidson diagonalization with overlap
     ethr =  2.78E-11,  avg # of iterations = 10.7

     total cpu time spent up to now is     1452.4 secs

     total energy              =   -1824.47563206 Ry
     estimated scf accuracy    <          2.4E-09 Ry

     iteration #  9     ecut=    60.00 Ry     beta= 0.70
     Davidson diagonalization with overlap
     ethr =  5.92E-12,  avg # of iterations =  3.7

     total cpu time spent up to now is     1457.7 secs

     total energy              =   -1824.47563206 Ry
     estimated scf accuracy    <          3.7E-09 Ry

     iteration # 10     ecut=    60.00 Ry     beta= 0.70
     Davidson diagonalization with overlap
     ethr =  5.92E-12,  avg # of iterations =  2.4

     total cpu time spent up to now is     1463.2 secs

     End of self-consistent calculation

          k = 0.0000 0.0000 0.0000 (  4219 PWs)   bands (ev):

   -10.9045 -10.5236  -8.9158  -8.9158  -8.8702  -8.8599  -8.7939  -8.7557
    -8.7557  -8.7463  -8.7245  -7.4230  -0.1959   0.8115   3.1139   3.1139
     5.5213   5.5449   5.5449   6.9619   8.8831  11.5413  12.8657  12.8657

          k = 0.0000 0.0000 0.1438 (  4207 PWs)   bands (ev):

   -10.9020 -10.5220  -8.9092  -8.9092  -8.8662  -8.8631  -8.7914  -8.7632
    -8.7632  -8.7466  -8.7269  -7.4216  -0.5720   1.3402   3.1368   3.1368
     5.5141   5.5393   5.5393   6.7418   8.7979  11.5423  12.0206  12.0206

          k = 0.0000 0.0000 0.2877 (  4200 PWs)   bands (ev):

   -10.8979 -10.5194  -8.8969  -8.8969  -8.8684  -8.8594  -8.7871  -8.7769
    -8.7769  -8.7473  -8.7313  -7.4194  -0.9283   1.9886   3.1746   3.1746
     5.5027   5.5297   5.5297   6.3141   8.7646  11.2882  11.4944  11.4944

          k = 0.0000 0.1956 0.0000 (  4183 PWs)   bands (ev):

   -10.8446 -10.5434  -8.9069  -8.8958  -8.8496  -8.8388  -8.8170  -8.7695
    -8.7481  -8.7318  -8.6301  -7.5293  -0.2633   0.6961   3.2049   3.3312
     4.9559   5.2944   5.4190   6.9076   9.7916  11.0723  11.9684  12.2945

          k = 0.0000 0.1956 0.1438 (  4194 PWs)   bands (ev):

   -10.8435 -10.5426  -8.9038  -8.8912  -8.8455  -8.8410  -8.8204  -8.7733
    -8.7506  -8.7296  -8.6302  -7.5279  -0.5322   1.0338   3.1747   3.3502
     5.0230   5.2898   5.4648   6.7509   9.6585  10.4697  12.3124  12.4969

          k = 0.0000 0.1956 0.2877 (  4191 PWs)   bands (ev):

   -10.8419 -10.5413  -8.8974  -8.8836  -8.8447  -8.8362  -8.8290  -8.7821
    -8.7483  -8.7306  -8.6298  -7.5257  -0.8152   1.4512   3.0917   3.3817
     5.1135   5.2820   5.6997   6.3599   9.5296   9.9088  11.8380  12.7250

          k = 0.0000 0.3912 0.0000 (  4200 PWs)   bands (ev):

   -10.7213 -10.6110  -8.8846  -8.8553  -8.8537  -8.8251  -8.7943  -8.7620
    -8.7453  -8.7427  -8.3144  -7.8642  -0.2130   0.2315   3.6909   3.9119
     4.4865   4.6594   5.2571   6.1853  10.1588  10.2275  12.2099  13.4318

          k = 0.0000 0.3912 0.1438 (  4212 PWs)   bands (ev):

   -10.7224 -10.6118  -8.8884  -8.8603  -8.8553  -8.8273  -8.7883  -8.7601
    -8.7425  -8.7352  -8.3122  -7.8622  -0.3060   0.3065   3.5610   3.9216
     4.4205   4.6598   5.4824   6.2276   9.9152  10.2243  12.4770  13.0703

          k = 0.0000 0.3912 0.2877 (  4218 PWs)   bands (ev):

   -10.7242 -10.6132  -8.8931  -8.8710  -8.8553  -8.8300  -8.7786  -8.7583
    -8.7333  -8.7290  -8.3085  -7.8591  -0.4232   0.3965   3.3913   3.9376
     4.3170   4.6604   5.8886   6.2151   9.6219  10.1547  12.7816  13.0253

          k = 0.1956 0.1956 0.0000 (  4205 PWs)   bands (ev):

   -10.7962 -10.5585  -8.8957  -8.8744  -8.8338  -8.8302  -8.8078  -8.7726
    -8.7459  -8.7372  -8.5383  -7.6036  -0.4019   0.4875   3.0224   3.9357
     4.6727   4.7736   5.8696   6.7663  10.2206  10.9965  11.3817  11.7139

          k = 0.1956 0.1956 0.1438 (  4205 PWs)   bands (ev):

   -10.7960 -10.5580  -8.8886  -8.8779  -8.8326  -8.8311  -8.8051  -8.7765
    -8.7536  -8.7357  -8.5316  -7.6012  -0.5778   0.6947   2.9085   3.9622
     4.7338   4.9201   5.8702   6.6133  10.1375  10.4637  11.0457  12.6017

          k = 0.1956 0.1956 0.2877 (  4204 PWs)   bands (ev):

   -10.7956 -10.5571  -8.8833  -8.8737  -8.8383  -8.8237  -8.8064  -8.7795
    -8.7675  -8.7342  -8.5209  -7.5973  -0.7841   0.9676   2.7330   4.0111
     4.6641   5.3993   5.8713   6.2799   9.7530  10.0998  11.1193  13.2600

          k = 0.1956 0.3912 0.0000 (  4213 PWs)   bands (ev):

   -10.6986 -10.6118  -8.8631  -8.8426  -8.8362  -8.8165  -8.7860  -8.7580
    -8.7419  -8.7412  -8.2536  -7.8657  -0.4805  -0.0855   3.3932   4.1215
     4.7202   4.8861   5.7025   6.0999   9.9039   9.9503  12.1207  12.2191

          k = 0.1956 0.3912 0.1438 (  4203 PWs)   bands (ev):

   -10.6994 -10.6120  -8.8654  -8.8485  -8.8340  -8.8142  -8.7848  -8.7611
    -8.7439  -8.7385  -8.2452  -7.8604  -0.5286  -0.0341   3.2175   4.0228
     4.7601   5.1213   5.7088   6.0778   9.8182  10.1225  11.6927  12.6242

          k = 0.1956 0.3912 0.2877 (  4207 PWs)   bands (ev):

   -10.7006 -10.6125  -8.8708  -8.8507  -8.8371  -8.8126  -8.7783  -8.7613
    -8.7486  -8.7386  -8.2316  -7.8519  -0.5935   0.0372   2.9990   3.8879
     4.8056   5.4208   5.7479   6.0170   9.7596  10.3860  11.5343  12.6385

          k = 0.3912 0.3912 0.0000 (  4199 PWs)   bands (ev):

   -10.6582 -10.6265  -8.8421  -8.8365  -8.7969  -8.7767  -8.7620  -8.7517
    -8.7358  -8.7335  -8.0959  -7.9299  -0.8426  -0.6743   3.6165   3.9873
     5.1232   5.6994   5.7072   6.1168   9.0463   9.1087  12.0243  12.3114

          k = 0.3912 0.3912 0.1438 (  4206 PWs)   bands (ev):

   -10.6581 -10.6261  -8.8404  -8.8317  -8.7956  -8.7777  -8.7666  -8.7569
    -8.7433  -8.7418  -8.0813  -7.9183  -0.8444  -0.6519   3.4658   3.9085
     5.1781   5.6159   5.7223   6.1166   9.2956   9.4581  11.8109  12.4799

          k = 0.3912 0.3912 0.2877 (  4186 PWs)   bands (ev):

   -10.6579 -10.6254  -8.8395  -8.8226  -8.7910  -8.7820  -8.7705  -8.7653
    -8.7583  -8.7535  -8.0586  -7.9000  -0.8455  -0.6168   3.2627   3.7918
     5.1813   5.5069   5.7520   6.1164  10.0372  10.3602  11.1280  11.8316

     the Fermi energy is     7.6879 ev

!    total energy              =   -1824.47563206 Ry
     total all-electron energy =    -83829.226348 Ry
     estimated scf accuracy    <          1.9E-11 Ry
     smearing contrib. (-TS)   =       0.00000000 Ry
     internal energy E=F+TS    =   -1824.47563206 Ry

     The total energy is F=E-TS. E is the sum of the following terms:
     one-electron contribution =    -137.06055149 Ry
     hartree contribution      =      99.21613971 Ry
     xc contribution           =    -103.58796350 Ry
     ewald contribution        =    -207.09314696 Ry
     one-center paw contrib.   =   -1475.95010982 Ry

     convergence has been achieved in  10 iterations

     Forces acting on atoms (cartesian axes, Ry/au):

     atom    1 type  1   force =     0.00000000    0.00000000    0.00002193
     atom    2 type  1   force =     0.00000000    0.00000000   -0.00002193
     atom    3 type  2   force =     0.00000000    0.00000000    0.00000000
     atom    4 type  2   force =     0.00000000    0.00000000    0.00000000

     Total force =     0.000031     Total SCF correction =     0.000015
     SCF correction compared to forces is large: reduce conv_thr to get better values


     Computing stress (Cartesian axis) and pressure

          total   stress  (Ry/bohr**3)                   (kbar)     P=        0.05
   0.00000048   0.00000000   0.00000000            0.07        0.00        0.00
   0.00000000   0.00000048   0.00000000            0.00        0.07        0.00
   0.00000000   0.00000000   0.00000004            0.00        0.00        0.01

     Energy error            =      1.3E-06 Ry
     Gradient error          =      2.2E-05 Ry/Bohr
     Cell gradient error     =      7.1E-02 kbar

     bfgs converged in  15 scf cycles and  14 bfgs steps
     (criteria: energy <  1.0E-04 Ry, force <  1.0E-03 Ry/Bohr, cell <  5.0E-01 kbar)

     End of BFGS Geometry Optimization

     Final enthalpy           =   -1824.4756320617 Ry

     File ./FeAl.bfgs deleted, as requested
Begin final coordinates  
     new unit-cell volume =    615.83672 a.u.^3 (    91.25759 Ang^3 )
     density =      8.12274 g/cm^3

CELL_PARAMETERS (alat=  7.51052751)
   1.022479425   0.000000000   0.000000000
   0.000000000   1.022479425   0.000000000
   0.000000000   0.000000000   1.390417102

ATOMIC_POSITIONS (crystal)
Pb               0.0000000000        0.5000000000        0.2157628063
Pb               0.5000000000        0.0000000000        0.7842371937
O                0.0000000000        0.0000000000        0.0000000000
O                0.5000000000        0.5000000000        0.0000000000
End final coordinates



     Writing config-only to output data dir ./FeAl.save/ :
     XML data file

     Final scf calculation at the relaxed structure.
     The G-vectors are recalculated for the final unit cell
     Results may differ from those at the preceding step.

     G-vector sticks info
     --------------------
     sticks:   dense  smooth     PW     G-vecs:    dense   smooth      PW
     Sum        1117    1117    325                38575    38575    5855

     Using Slab Decomposition



     bravais-lattice index     =            0
     lattice parameter (alat)  =       7.5105  a.u.
     unit-cell volume          =     615.8367 (a.u.)^3
     number of atoms/cell      =            4
     number of atomic types    =            2
     number of electrons       =        40.00
     number of Kohn-Sham states=           24
     kinetic-energy cutoff     =      60.0000  Ry
     charge density cutoff     =     240.0000  Ry
     scf convergence threshold =      1.0E-10
     mixing beta               =       0.7000
     number of iterations used =            8  plain     mixing
     press convergence thresh. =      5.0E-01
     Exchange-correlation= SLA  PW   PBX  PBC
                           (   1   4   3   4   0   0   0)

     celldm(1)=   7.510528  celldm(2)=   0.000000  celldm(3)=   0.000000
     celldm(4)=   0.000000  celldm(5)=   0.000000  celldm(6)=   0.000000

     crystal axes: (cart. coord. in units of alat)
               a(1) = (   1.022479   0.000000   0.000000 )  
               a(2) = (   0.000000   1.022479   0.000000 )  
               a(3) = (   0.000000   0.000000   1.390417 )  

     reciprocal axes: (cart. coord. in units 2 pi/alat)
               b(1) = (  0.978015  0.000000  0.000000 )  
               b(2) = (  0.000000  0.978015  0.000000 )  
               b(3) = (  0.000000  0.000000  0.719209 )  


     PseudoPot. # 1 for Pb read from file:
     /home/yluo/ASE/05a_geo_opt/src/Pb.pbe-dn-kjpaw_psl.0.2.2.UPF
     MD5 check sum: 9d431e6316058b74ade52399a6cf67da
     Pseudo is Projector augmented-wave + core cor, Zval = 14.0
     Generated using "atomic" code by A. Dal Corso  v.5.0.99 svn rev. 10869
     Shape of augmentation charge: PSQ
     Using radial grid of 1281 points,  6 beta functions with: 
                l(1) =   0
                l(2) =   0
                l(3) =   1
                l(4) =   1
                l(5) =   2
                l(6) =   2
     Q(r) pseudized with 0 coefficients 


     PseudoPot. # 2 for O  read from file:
     /home/yluo/ASE/05a_geo_opt/src/O.pbe-n-kjpaw_psl.0.1.UPF
     MD5 check sum: 0234752ac141de4415c5fc33072bef88
     Pseudo is Projector augmented-wave + core cor, Zval =  6.0
     Generated using "atomic" code by A. Dal Corso  v.5.0.99 svn rev. 10869
     Shape of augmentation charge: BESSEL
     Using radial grid of 1095 points,  4 beta functions with: 
                l(1) =   0
                l(2) =   0
                l(3) =   1
                l(4) =   1
     Q(r) pseudized with 0 coefficients 


     atomic species   valence    mass     pseudopotential
     Pb               14.00   207.20000     Pb( 1.00)
     O                 6.00    15.99900     O ( 1.00)

     16 Sym. Ops., with inversion, found ( 8 have fractional translation)



   Cartesian axes

     site n.     atom                  positions (alat units)
         1        Pb     tau(   1) = (   0.0000000   0.5112397   0.3000003  )
         2        Pb     tau(   2) = (   0.5112397   0.0000000   1.0904168  )
         3        O      tau(   3) = (   0.0000000   0.0000000   0.0000000  )
         4        O      tau(   4) = (   0.5112397   0.5112397   0.0000000  )

     number of k points=    18  Marzari-Vanderbilt smearing, width (Ry)=  0.0050
                       cart. coord. in units 2pi/alat
        k(    1) = (   0.0000000   0.0000000   0.0000000), wk =   0.0160000
        k(    2) = (   0.0000000   0.0000000   0.1438417), wk =   0.0320000
        k(    3) = (   0.0000000   0.0000000   0.2876835), wk =   0.0320000
        k(    4) = (   0.0000000   0.1956030   0.0000000), wk =   0.0640000
        k(    5) = (   0.0000000   0.1956030   0.1438417), wk =   0.1280000
        k(    6) = (   0.0000000   0.1956030   0.2876835), wk =   0.1280000
        k(    7) = (   0.0000000   0.3912059   0.0000000), wk =   0.0640000
        k(    8) = (   0.0000000   0.3912059   0.1438417), wk =   0.1280000
        k(    9) = (   0.0000000   0.3912059   0.2876835), wk =   0.1280000
        k(   10) = (   0.1956030   0.1956030   0.0000000), wk =   0.0640000
        k(   11) = (   0.1956030   0.1956030   0.1438417), wk =   0.1280000
        k(   12) = (   0.1956030   0.1956030   0.2876835), wk =   0.1280000
        k(   13) = (   0.1956030   0.3912059   0.0000000), wk =   0.1280000
        k(   14) = (   0.1956030   0.3912059   0.1438417), wk =   0.2560000
        k(   15) = (   0.1956030   0.3912059   0.2876835), wk =   0.2560000
        k(   16) = (   0.3912059   0.3912059   0.0000000), wk =   0.0640000
        k(   17) = (   0.3912059   0.3912059   0.1438417), wk =   0.1280000
        k(   18) = (   0.3912059   0.3912059   0.2876835), wk =   0.1280000

     Dense  grid:    38575 G-vectors     FFT dimensions: (  40,  40,  54)

     Estimated max dynamical RAM per process >     184.41 MB

     Check: negative core charge=   -0.000006

     Initial potential from superposition of free atoms

     starting charge      39.9953, renormalised to      40.0000
     Starting wfcs are   26 randomized atomic wfcs
     Checking if some PAW data can be deallocated... 

     total cpu time spent up to now is     1471.2 secs

     Self-consistent Calculation

     iteration #  1     ecut=    60.00 Ry     beta= 0.70
     Davidson diagonalization with overlap
     c_bands:  5 eigenvalues not converged
     c_bands:  4 eigenvalues not converged
     c_bands:  4 eigenvalues not converged
     c_bands:  1 eigenvalues not converged
     c_bands:  1 eigenvalues not converged
     ethr =  1.00E-06,  avg # of iterations = 28.6

     total cpu time spent up to now is     1518.4 secs

     total energy              =   -1823.61056370 Ry
     estimated scf accuracy    <       1.50307469 Ry

     iteration #  2     ecut=    60.00 Ry     beta= 0.70
     Davidson diagonalization with overlap
     ethr =  3.76E-03,  avg # of iterations =  4.8

     total cpu time spent up to now is     1525.8 secs

     total energy              =   -1822.52949962 Ry
     estimated scf accuracy    <      11.46652432 Ry

     iteration #  3     ecut=    60.00 Ry     beta= 0.70
     Davidson diagonalization with overlap
     ethr =  3.76E-03,  avg # of iterations =  3.7

     total cpu time spent up to now is     1532.9 secs

     total energy              =   -1824.48144761 Ry
     estimated scf accuracy    <       0.14088733 Ry

     iteration #  4     ecut=    60.00 Ry     beta= 0.70
     Davidson diagonalization with overlap
     ethr =  3.52E-04,  avg # of iterations =  1.9

     total cpu time spent up to now is     1538.6 secs

     total energy              =   -1824.45938384 Ry
     estimated scf accuracy    <       0.06578134 Ry

     iteration #  5     ecut=    60.00 Ry     beta= 0.70
     Davidson diagonalization with overlap
     ethr =  1.64E-04,  avg # of iterations =  2.9

     total cpu time spent up to now is     1544.5 secs

     total energy              =   -1824.47552897 Ry
     estimated scf accuracy    <       0.00512311 Ry

     iteration #  6     ecut=    60.00 Ry     beta= 0.70
     Davidson diagonalization with overlap
     ethr =  1.28E-05,  avg # of iterations =  5.2

     total cpu time spent up to now is     1551.3 secs

     total energy              =   -1824.47644088 Ry
     estimated scf accuracy    <       0.00109350 Ry

     iteration #  7     ecut=    60.00 Ry     beta= 0.70
     Davidson diagonalization with overlap
     ethr =  2.73E-06,  avg # of iterations =  5.3

     total cpu time spent up to now is     1558.3 secs

     total energy              =   -1824.47669658 Ry
     estimated scf accuracy    <       0.00037845 Ry

     iteration #  8     ecut=    60.00 Ry     beta= 0.70
     Davidson diagonalization with overlap
     ethr =  9.46E-07,  avg # of iterations =  4.4

     total cpu time spent up to now is     1564.3 secs

     total energy              =   -1824.47658594 Ry
     estimated scf accuracy    <       0.00045129 Ry

     iteration #  9     ecut=    60.00 Ry     beta= 0.70
     Davidson diagonalization with overlap
     ethr =  9.46E-07,  avg # of iterations =  2.2

     total cpu time spent up to now is     1570.0 secs

     total energy              =   -1824.47666213 Ry
     estimated scf accuracy    <       0.00002291 Ry

     iteration # 10     ecut=    60.00 Ry     beta= 0.70
     Davidson diagonalization with overlap
     ethr =  5.73E-08,  avg # of iterations =  5.9

     total cpu time spent up to now is     1578.3 secs

     total energy              =   -1824.47667495 Ry
     estimated scf accuracy    <       0.00001722 Ry

     iteration # 11     ecut=    60.00 Ry     beta= 0.70
     Davidson diagonalization with overlap
     ethr =  4.31E-08,  avg # of iterations =  1.3

     total cpu time spent up to now is     1583.3 secs

     total energy              =   -1824.47667427 Ry
     estimated scf accuracy    <       0.00001209 Ry

     iteration # 12     ecut=    60.00 Ry     beta= 0.70
     Davidson diagonalization with overlap
     ethr =  3.02E-08,  avg # of iterations =  1.4

     total cpu time spent up to now is     1588.5 secs

     total energy              =   -1824.47667463 Ry
     estimated scf accuracy    <       0.00000264 Ry

     iteration # 13     ecut=    60.00 Ry     beta= 0.70
     Davidson diagonalization with overlap
     ethr =  6.60E-09,  avg # of iterations =  5.1

     total cpu time spent up to now is     1596.0 secs

     total energy              =   -1824.47667540 Ry
     estimated scf accuracy    <       0.00000064 Ry

     iteration # 14     ecut=    60.00 Ry     beta= 0.70
     Davidson diagonalization with overlap
     ethr =  1.60E-09,  avg # of iterations =  4.8

     total cpu time spent up to now is     1603.1 secs

     total energy              =   -1824.47667558 Ry
     estimated scf accuracy    <       0.00000011 Ry

     iteration # 15     ecut=    60.00 Ry     beta= 0.70
     Davidson diagonalization with overlap
     ethr =  2.64E-10,  avg # of iterations =  4.8

     total cpu time spent up to now is     1610.6 secs

     total energy              =   -1824.47667560 Ry
     estimated scf accuracy    <       0.00000004 Ry

     iteration # 16     ecut=    60.00 Ry     beta= 0.70
     Davidson diagonalization with overlap
     ethr =  1.10E-10,  avg # of iterations =  2.8

     total cpu time spent up to now is     1616.6 secs

     total energy              =   -1824.47667561 Ry
     estimated scf accuracy    <          1.9E-09 Ry

     iteration # 17     ecut=    60.00 Ry     beta= 0.70
     Davidson diagonalization with overlap
     ethr =  4.69E-12,  avg # of iterations =  7.8

     total cpu time spent up to now is     1629.4 secs

     total energy              =   -1824.47667561 Ry
     estimated scf accuracy    <          8.1E-10 Ry

     iteration # 18     ecut=    60.00 Ry     beta= 0.70
     Davidson diagonalization with overlap
     ethr =  2.03E-12,  avg # of iterations =  4.3

     total cpu time spent up to now is     1636.0 secs

     total energy              =   -1824.47667561 Ry
     estimated scf accuracy    <          1.0E-10 Ry

     iteration # 19     ecut=    60.00 Ry     beta= 0.70
     Davidson diagonalization with overlap
     ethr =  2.51E-13,  avg # of iterations =  4.9

     total cpu time spent up to now is     1643.4 secs

     End of self-consistent calculation

          k = 0.0000 0.0000 0.0000 (  4813 PWs)   bands (ev):

   -10.9040 -10.5244  -8.9190  -8.9190  -8.8736  -8.8627  -8.7967  -8.7590
    -8.7590  -8.7497  -8.7274  -7.4245  -0.1962   0.8111   3.1134   3.1134
     5.5208   5.5444   5.5444   6.9612   8.8829  11.5409  12.8647  12.8647

          k = 0.0000 0.0000 0.1438 (  4850 PWs)   bands (ev):

   -10.9015 -10.5229  -8.9124  -8.9124  -8.8696  -8.8659  -8.7943  -8.7665
    -8.7665  -8.7500  -8.7298  -7.4231  -0.5723   1.3399   3.1362   3.1362
     5.5135   5.5388   5.5388   6.7411   8.7975  11.5421  12.0200  12.0200

          k = 0.0000 0.0000 0.2877 (  4830 PWs)   bands (ev):

   -10.8974 -10.5203  -8.9001  -8.9001  -8.8711  -8.8629  -8.7899  -8.7802
    -8.7802  -8.7507  -8.7342  -7.4208  -0.9287   1.9883   3.1740   3.1740
     5.5021   5.5292   5.5292   6.3135   8.7640  11.2880  11.4939  11.4939

          k = 0.0000 0.1956 0.0000 (  4833 PWs)   bands (ev):

   -10.8443 -10.5443  -8.9101  -8.8990  -8.8530  -8.8416  -8.8200  -8.7729
    -8.7513  -8.7347  -8.6331  -7.5309  -0.2636   0.6957   3.2044   3.3306
     4.9555   5.2938   5.4184   6.9070   9.7911  11.0717  11.9680  12.2935

          k = 0.0000 0.1956 0.1438 (  4852 PWs)   bands (ev):

   -10.8433 -10.5435  -8.9070  -8.8944  -8.8489  -8.8438  -8.8234  -8.7767
    -8.7537  -8.7325  -8.6332  -7.5295  -0.5325   1.0335   3.1742   3.3497
     5.0226   5.2892   5.4642   6.7503   9.6578  10.4691  12.3118  12.4963

          k = 0.0000 0.1956 0.2877 (  4863 PWs)   bands (ev):

   -10.8416 -10.5422  -8.9006  -8.8869  -8.8475  -8.8396  -8.8321  -8.7855
    -8.7513  -8.7335  -8.6329  -7.5273  -0.8156   1.4509   3.0912   3.3810
     5.1129   5.2814   5.6991   6.3593   9.5288   9.9081  11.8375  12.7246

          k = 0.0000 0.3912 0.0000 (  4813 PWs)   bands (ev):

   -10.7215 -10.6116  -8.8878  -8.8585  -8.8569  -8.8282  -8.7976  -8.7653
    -8.7483  -8.7456  -8.3169  -7.8661  -0.2133   0.2313   3.6905   3.9113
     4.4860   4.6588   5.2567   6.1848  10.1579  10.2265  12.2096  13.4309

          k = 0.0000 0.3912 0.1438 (  4827 PWs)   bands (ev):

   -10.7226 -10.6124  -8.8916  -8.8634  -8.8585  -8.8304  -8.7916  -8.7633
    -8.7455  -8.7382  -8.3147  -7.8642  -0.3062   0.3063   3.5607   3.9210
     4.4201   4.6592   5.4820   6.2271   9.9143  10.2232  12.4767  13.0698

          k = 0.0000 0.3912 0.2877 (  4834 PWs)   bands (ev):

   -10.7244 -10.6137  -8.8962  -8.8741  -8.8585  -8.8331  -8.7818  -8.7615
    -8.7363  -8.7320  -8.3110  -7.8610  -0.4234   0.3962   3.3909   3.9371
     4.3166   4.6598   5.8882   6.2147   9.6210  10.1536  12.7810  13.0250

          k = 0.1956 0.1956 0.0000 (  4835 PWs)   bands (ev):

   -10.7960 -10.5593  -8.8988  -8.8776  -8.8372  -8.8331  -8.8106  -8.7760
    -8.7492  -8.7401  -8.5412  -7.6053  -0.4021   0.4872   3.0219   3.9352
     4.6722   4.7732   5.8689   6.7657  10.2196  10.9955  11.3816  11.7134

          k = 0.1956 0.1956 0.1438 (  4839 PWs)   bands (ev):

   -10.7958 -10.5588  -8.8917  -8.8812  -8.8354  -8.8344  -8.8080  -8.7799
    -8.7569  -8.7386  -8.5345  -7.6029  -0.5781   0.6944   2.9080   3.9618
     4.7335   4.9197   5.8695   6.6128  10.1366  10.4633  11.0448  12.6015

          k = 0.1956 0.1956 0.2877 (  4854 PWs)   bands (ev):

   -10.7955 -10.5579  -8.8865  -8.8769  -8.8412  -8.8271  -8.8093  -8.7829
    -8.7708  -8.7372  -8.5237  -7.5990  -0.7844   0.9674   2.7325   4.0106
     4.6637   5.3988   5.8705   6.2793   9.7524  10.0988  11.1185  13.4094

          k = 0.1956 0.3912 0.0000 (  4830 PWs)   bands (ev):

   -10.6989 -10.6124  -8.8661  -8.8458  -8.8392  -8.8195  -8.7893  -8.7613
    -8.7449  -8.7444  -8.2560  -7.8676  -0.4807  -0.0857   3.3929   4.1211
     4.7197   4.8857   5.7019   6.0994   9.9030   9.9494  12.1205  12.2184

          k = 0.1956 0.3912 0.1438 (  4819 PWs)   bands (ev):

   -10.6997 -10.6127  -8.8684  -8.8515  -8.8370  -8.8173  -8.7881  -8.7643
    -8.7471  -8.7415  -8.2476  -7.8623  -0.5289  -0.0343   3.2171   4.0224
     4.7596   5.1209   5.7083   6.0773   9.8174  10.1215  11.6920  12.6238

          k = 0.1956 0.3912 0.2877 (  4826 PWs)   bands (ev):

   -10.7009 -10.6131  -8.8739  -8.8537  -8.8402  -8.8156  -8.7816  -8.7645
    -8.7517  -8.7416  -8.2340  -7.8538  -0.5938   0.0370   2.9986   3.8875
     4.8050   5.4203   5.7475   6.0166   9.7588  10.3849  11.5335  12.6379

          k = 0.3912 0.3912 0.0000 (  4830 PWs)   bands (ev):

   -10.6588 -10.6272  -8.8452  -8.8395  -8.7998  -8.7795  -8.7654  -8.7550
    -8.7390  -8.7367  -8.0981  -7.9319  -0.8429  -0.6746   3.6162   3.9871
     5.1229   5.6988   5.7068   6.1161   9.0456   9.1080  12.0230  12.3104

          k = 0.3912 0.3912 0.1438 (  4844 PWs)   bands (ev):

   -10.6587 -10.6268  -8.8434  -8.8347  -8.7985  -8.7805  -8.7699  -8.7602
    -8.7466  -8.7450  -8.0835  -7.9203  -0.8446  -0.6522   3.4655   3.9082
     5.1777   5.6155   5.7216   6.1160   9.2949   9.4573  11.8098  12.4788

          k = 0.3912 0.3912 0.2877 (  4806 PWs)   bands (ev):

   -10.6585 -10.6261  -8.8425  -8.8255  -8.7939  -8.7849  -8.7739  -8.7686
    -8.7615  -8.7566  -8.0608  -7.9021  -0.8457  -0.6171   3.2624   3.7916
     5.1809   5.5065   5.7514   6.1158  10.0365  10.3593  11.1270  11.8312

     the Fermi energy is     7.6873 ev

!    total energy              =   -1824.47667561 Ry
     total all-electron energy =    -83829.227392 Ry
     estimated scf accuracy    <          4.8E-11 Ry
     smearing contrib. (-TS)   =       0.00000000 Ry
     internal energy E=F+TS    =   -1824.47667561 Ry

     The total energy is F=E-TS. E is the sum of the following terms:
     one-electron contribution =    -137.06105127 Ry
     hartree contribution      =      99.21008746 Ry
     xc contribution           =    -103.58523276 Ry
     ewald contribution        =    -207.09314673 Ry
     one-center paw contrib.   =   -1475.94733232 Ry

     convergence has been achieved in  19 iterations

     Forces acting on atoms (cartesian axes, Ry/au):

     atom    1 type  1   force =     0.00000000    0.00000000    0.00001073
     atom    2 type  1   force =     0.00000000    0.00000000   -0.00001073
     atom    3 type  2   force =     0.00000000    0.00000000    0.00000000
     atom    4 type  2   force =     0.00000000    0.00000000    0.00000000

     Total force =     0.000015     Total SCF correction =     0.000005
     SCF correction compared to forces is large: reduce conv_thr to get better values


     Computing stress (Cartesian axis) and pressure

          total   stress  (Ry/bohr**3)                   (kbar)     P=       -0.42
  -0.00000180   0.00000000   0.00000000           -0.26        0.00        0.00
   0.00000000  -0.00000180   0.00000000            0.00       -0.26        0.00
   0.00000000   0.00000000  -0.00000501            0.00        0.00       -0.74


     Writing all to output data dir ./FeAl.save/ :
     XML data file, charge density, pseudopotentials, collected wavefunctions

     init_run     :      6.28s CPU      6.49s WALL (       2 calls)
     electrons    :   1510.08s CPU   1544.85s WALL (      16 calls)
     update_pot   :      7.05s CPU      7.07s WALL (      14 calls)
     forces       :     15.50s CPU     16.52s WALL (      16 calls)
     stress       :     59.03s CPU     61.88s WALL (      16 calls)

     Called by init_run:
     wfcinit      :      3.60s CPU      3.61s WALL (       2 calls)
     potinit      :      1.11s CPU      1.17s WALL (       2 calls)
     hinit0       :      1.23s CPU      1.24s WALL (       2 calls)

     Called by electrons:
     c_bands      :   1244.50s CPU   1248.66s WALL (     226 calls)
     sum_band     :    126.24s CPU    144.71s WALL (     226 calls)
     v_of_rho     :      6.24s CPU      6.25s WALL (     239 calls)
     newd         :     29.72s CPU     42.59s WALL (     239 calls)
     PAW_pot      :    118.04s CPU    118.32s WALL (     253 calls)
     mix_rho      :      1.34s CPU      1.35s WALL (     226 calls)

     Called by c_bands:
     init_us_2    :     14.36s CPU     14.52s WALL (    9000 calls)
     cegterg      :   1214.60s CPU   1218.51s WALL (    4083 calls)

     Called by *egterg:
     cdiaghg      :     17.58s CPU     17.64s WALL (   20419 calls)
     h_psi        :    558.81s CPU    561.24s WALL (   20776 calls)
     s_psi        :    126.03s CPU    126.40s WALL (   20776 calls)
     g_psi        :      3.75s CPU      3.77s WALL (   16657 calls)

     Called by h_psi:
     h_psi:calbec :    130.44s CPU    130.88s WALL (   20776 calls)
     vloc_psi     :    298.16s CPU    299.72s WALL (   20776 calls)
                                        0.00s GPU  (   20776 calls)
     add_vuspsi   :    126.72s CPU    127.18s WALL (   20776 calls)

     General routines
     calbec       :    217.59s CPU    218.34s WALL (   29992 calls)
     fft          :      2.33s CPU      2.34s WALL (    3046 calls)
     ffts         :      0.17s CPU      0.17s WALL (     226 calls)
     fftw         :    286.75s CPU    288.39s WALL (  710986 calls)

     Parallel routines

     PWSCF        :  26m49.18s CPU  27m29.17s WALL


   This run was terminated on:  21:39:45  16Jul2026            

=------------------------------------------------------------------------------=
   JOB DONE.
=------------------------------------------------------------------------------=
