
     Program PWSCF v.7.5 starts on 28Jul2026 at 16:55:11 

     This program is part of the open-source Quantum ESPRESSO suite
     for quantum simulation of materials; please cite
         "P. Giannozzi et al., J. Phys.:Condens. Matter 21 395502 (2009);
         "P. Giannozzi et al., J. Phys.:Condens. Matter 29 465901 (2017);
         "P. Giannozzi et al., J. Chem. Phys. 152 154105 (2020);
          URL http://www.quantum-espresso.org", 
     in publications or presentations arising from this work. More details at
     http://www.quantum-espresso.org/quote

     Parallel version (MPI), running on     1 processors

     MPI processes distributed on     1 nodes
     12410 MiB available memory on the printing compute node when the environment starts

     Reading input from espresso.pwi
Warning: card &CELL ignored
Warning: card &FCP ignored
Warning: card &RISM ignored

     Current dimensions of program PWSCF are:
     Max number of different atomic species (ntypx) = 10
     Max number of k-points (npk) =  40000
     Max angular momentum in pseudopotentials (lmaxx) =  4
     file Al.pbe-n-kjpaw_psl.1.0.0.UPF: wavefunction(s)  3S 3P renormalized
     Found identity + (  0.0000 -0.5000 -0.5000) symmetry
     This is a supercell, fractional translations are disabled
     Message from routine setup:
     using ibrav=0 with symmetry is DISCOURAGED, use correct ibrav instead

     Subspace diagonalization in iterative solution of the eigenvalue problem:
     a serial algorithm will be used


     G-vector sticks info
     --------------------
     sticks:   dense  smooth     PW     G-vecs:    dense   smooth      PW
     Sum         749     749    225                15419    15419    2553

     Using Slab Decomposition



     bravais-lattice index     =            0
     lattice parameter (alat)  =       7.6526  a.u.
     unit-cell volume          =     448.1532 (a.u.)^3
     number of atoms/cell      =            4
     number of atomic types    =            1
     number of electrons       =        12.00
     number of Kohn-Sham states=           10
     kinetic-energy cutoff     =      40.0000  Ry
     charge density cutoff     =     160.0000  Ry
     scf convergence threshold =      1.0E-08
     mixing beta               =       0.7000
     number of iterations used =            8  plain     mixing
     Exchange-correlation= SLA  PW   PBX  PBC
                           (   1   4   3   4   0   0   0)

     celldm(1)=   7.652597  celldm(2)=   0.000000  celldm(3)=   0.000000
     celldm(4)=   0.000000  celldm(5)=   0.000000  celldm(6)=   0.000000

     crystal axes: (cart. coord. in units of alat)
               a(1) = (   1.000000   0.000000   0.000000 )  
               a(2) = (   0.000000   1.000000   0.000000 )  
               a(3) = (   0.000000   0.000000   1.000000 )  

     reciprocal axes: (cart. coord. in units 2 pi/alat)
               b(1) = (  1.000000  0.000000  0.000000 )  
               b(2) = (  0.000000  1.000000  0.000000 )  
               b(3) = (  0.000000  0.000000  1.000000 )  


     PseudoPot. # 1 for Al read from file:
     /home/yluo/ASE/pseudopotential-library/Al.pbe-n-kjpaw_psl.1.0.0.UPF
     MD5 check sum: cfc449ca30b5f3223ec38ddd88ac046d
     Pseudo is Projector augmented-wave + core cor, Zval =  3.0
     Generated using "atomic" code by A. Dal Corso  v.5.1
     Shape of augmentation charge: PSQ
     Using radial grid of 1135 points,  6 beta functions with: 
                l(1) =   0
                l(2) =   0
                l(3) =   1
                l(4) =   1
                l(5) =   2
                l(6) =   2
     Q(r) pseudized with 0 coefficients 


     atomic species   valence    mass     pseudopotential
     Al                3.00    26.98154     Al( 1.00)

     48 Sym. Ops., with inversion, found



   Cartesian axes

     site n.     atom                  positions (alat units)
         1        Al     tau(   1) = (   0.0000000   0.0000000   0.0000000  )
         2        Al     tau(   2) = (   0.0000000   0.5000000   0.5000000  )
         3        Al     tau(   3) = (   0.5000000   0.0000000   0.5000000  )
         4        Al     tau(   4) = (   0.5000000   0.5000000   0.0000000  )

     number of k points=   120  Marzari-Vanderbilt smearing, width (Ry)=  0.0050

     Number of k-points >= 100: set verbosity='high' to print them.

     Dense  grid:    15419 G-vectors     FFT dimensions: (  32,  32,  32)

     Estimated max dynamical RAM per process >      94.43 MB

     Initial potential from superposition of free atoms

     starting charge      11.9908, renormalised to      12.0000
     Starting wfcs are   16 randomized atomic wfcs
     Checking if some PAW data can be deallocated... 

     total cpu time spent up to now is        4.3 secs

     Self-consistent Calculation

     iteration #  1     ecut=    40.00 Ry     beta= 0.70
     Davidson diagonalization with overlap
     ethr =  1.00E-02,  avg # of iterations =  3.6

     Threshold (ethr) on eigenvalues was too large:
     Diagonalizing with lowered threshold

     Davidson diagonalization with overlap
     ethr =  1.73E-04,  avg # of iterations =  5.0

     total cpu time spent up to now is       19.1 secs

     total energy              =    -158.01155089 Ry
     estimated scf accuracy    <       0.02175972 Ry

     iteration #  2     ecut=    40.00 Ry     beta= 0.70
     Davidson diagonalization with overlap
     ethr =  1.81E-04,  avg # of iterations =  1.0

     total cpu time spent up to now is       24.4 secs

     total energy              =    -158.01144120 Ry
     estimated scf accuracy    <       0.00163770 Ry

     iteration #  3     ecut=    40.00 Ry     beta= 0.70
     Davidson diagonalization with overlap
     ethr =  1.36E-05,  avg # of iterations =  3.7

     total cpu time spent up to now is       30.6 secs

     total energy              =    -158.01152005 Ry
     estimated scf accuracy    <       0.00000264 Ry

     iteration #  4     ecut=    40.00 Ry     beta= 0.70
     Davidson diagonalization with overlap
     c_bands:  1 eigenvalues not converged
     ethr =  2.20E-08,  avg # of iterations =  6.4

     total cpu time spent up to now is       40.9 secs

     total energy              =    -158.01153706 Ry
     estimated scf accuracy    <       0.00000045 Ry

     iteration #  5     ecut=    40.00 Ry     beta= 0.70
     Davidson diagonalization with overlap
     ethr =  3.72E-09,  avg # of iterations =  2.0

     total cpu time spent up to now is       47.0 secs

     End of self-consistent calculation

     Number of k-points >= 100: set verbosity='high' to print the bands.

     the Fermi energy is     7.8926 ev

!    total energy              =    -158.01153713 Ry
     total all-electron energy =     -1942.582663 Ry
     estimated scf accuracy    <          4.3E-09 Ry
     smearing contrib. (-TS)   =      -0.00003260 Ry
     internal energy E=F+TS    =    -158.01150453 Ry

     The total energy is F=E-TS. E is the sum of the following terms:
     one-electron contribution =      12.59768206 Ry
     hartree contribution      =       0.02302293 Ry
     xc contribution           =     -10.34893858 Ry
     ewald contribution        =     -21.56849919 Ry
     one-center paw contrib.   =    -138.71477176 Ry

     convergence has been achieved in   5 iterations

     Forces acting on atoms (cartesian axes, Ry/au):

     atom    1 type  1   force =     0.00000000    0.00000000    0.00000000
     atom    2 type  1   force =     0.00000000    0.00000000    0.00000000
     atom    3 type  1   force =     0.00000000    0.00000000    0.00000000
     atom    4 type  1   force =     0.00000000    0.00000000    0.00000000

     Total force =     0.000000     Total SCF correction =     0.000000


     Computing stress (Cartesian axis) and pressure

          total   stress  (Ry/bohr**3)                   (kbar)     P=       -6.62
  -0.00004500   0.00000000   0.00000000           -6.62        0.00        0.00
   0.00000000  -0.00004500   0.00000000            0.00       -6.62        0.00
   0.00000000   0.00000000  -0.00004500            0.00        0.00       -6.62


     Writing all to output data dir ./AlFCC.save/ :
     XML data file, charge density, pseudopotentials, collected wavefunctions

     init_run     :      4.03s CPU      4.24s WALL (       1 calls)
     electrons    :     41.49s CPU     42.65s WALL (       1 calls)
     forces       :      1.54s CPU      1.59s WALL (       1 calls)
     stress       :      5.53s CPU      5.60s WALL (       1 calls)

     Called by init_run:
     wfcinit      :      2.87s CPU      2.92s WALL (       1 calls)
     potinit      :      0.76s CPU      0.89s WALL (       1 calls)
     hinit0       :      0.30s CPU      0.30s WALL (       1 calls)

     Called by electrons:
     c_bands      :     33.67s CPU     33.88s WALL (       6 calls)
     sum_band     :      3.88s CPU      4.17s WALL (       6 calls)
     v_of_rho     :      0.07s CPU      0.07s WALL (       6 calls)
     newd         :      0.40s CPU      0.51s WALL (       6 calls)
     PAW_pot      :      4.28s CPU      4.97s WALL (       6 calls)
     mix_rho      :      0.01s CPU      0.01s WALL (       6 calls)

     Called by c_bands:
     init_us_2    :      1.19s CPU      1.20s WALL (    1800 calls)
     cegterg      :     30.36s CPU     30.53s WALL (     720 calls)

     Called by *egterg:
     cdiaghg      :      0.47s CPU      0.47s WALL (    3212 calls)
     h_psi        :     19.79s CPU     19.98s WALL (    3452 calls)
     s_psi        :      5.95s CPU      5.96s WALL (    3452 calls)
     g_psi        :      0.11s CPU      0.12s WALL (    2612 calls)

     Called by h_psi:
     h_psi:calbec :      5.55s CPU      5.59s WALL (    3452 calls)
     vloc_psi     :      8.23s CPU      8.37s WALL (    3452 calls)
                                        0.00s GPU  (    3452 calls)
     add_vuspsi   :      5.92s CPU      5.93s WALL (    3452 calls)

     General routines
     calbec       :     12.19s CPU     12.26s WALL (    6212 calls)
     fft          :      0.14s CPU      0.14s WALL (      92 calls)
     ffts         :      0.00s CPU      0.00s WALL (       6 calls)
     fftw         :      7.81s CPU      7.94s WALL (   53682 calls)

     Parallel routines

     PWSCF        :     52.73s CPU     54.27s WALL


   This run was terminated on:  16:56: 5  28Jul2026            

=------------------------------------------------------------------------------=
   JOB DONE.
=------------------------------------------------------------------------------=
