
     Program PWSCF v.7.5 starts on  5Jul2026 at  1:34: 3 

     This program is part of the open-source Quantum ESPRESSO suite
     for quantum simulation of materials; please cite
         "P. Giannozzi et al., J. Phys.:Condens. Matter 21 395502 (2009);
         "P. Giannozzi et al., J. Phys.:Condens. Matter 29 465901 (2017);
         "P. Giannozzi et al., J. Chem. Phys. 152 154105 (2020);
          URL http://www.quantum-espresso.org", 
     in publications or presentations arising from this work. More details at
     http://www.quantum-espresso.org/quote

     Parallel version (MPI), running on     1 processors

     MPI processes distributed on     1 nodes
     10412 MiB available memory on the printing compute node when the environment starts

     Reading input from espresso.pwi
Warning: card &CELL ignored
Warning: card &FCP ignored
Warning: card &RISM ignored

     Current dimensions of program PWSCF are:
     Max number of different atomic species (ntypx) = 10
     Max number of k-points (npk) =  40000
     Max angular momentum in pseudopotentials (lmaxx) =  4
     file Fe.pbe-spn-kjpaw_psl.0.2.1.UPF: wavefunction(s)  3D renormalized
     file Al.pbe-n-kjpaw_psl.0.1.UPF: wavefunction(s)  3S renormalized
     Message from routine setup:
     using ibrav=0 with symmetry is DISCOURAGED, use correct ibrav instead

     Subspace diagonalization in iterative solution of the eigenvalue problem:
     a serial algorithm will be used


     G-vector sticks info
     --------------------
     sticks:   dense  smooth     PW     G-vecs:    dense   smooth      PW
     Sum        2389     951    295               118311    29857    4927

     Using Slab Decomposition



     bravais-lattice index     =            0
     lattice parameter (alat)  =       5.1138  a.u.
     unit-cell volume          =     378.2419 (a.u.)^3
     number of atoms/cell      =            4
     number of atomic types    =            2
     number of electrons       =        38.00
     number of Kohn-Sham states=           23
     kinetic-energy cutoff     =      70.0000  Ry
     charge density cutoff     =     700.0000  Ry
     scf convergence threshold =      1.0E-08
     mixing beta               =       0.7000
     number of iterations used =            8  plain     mixing
     Exchange-correlation= SLA  PW   PBX  PBC
                           (   1   4   3   4   0   0   0)

     celldm(1)=   5.113788  celldm(2)=   0.000000  celldm(3)=   0.000000
     celldm(4)=   0.000000  celldm(5)=   0.000000  celldm(6)=   0.000000

     crystal axes: (cart. coord. in units of alat)
               a(1) = (   1.000000   0.000000   0.000000 )  
               a(2) = (   0.000000   1.632981   0.000000 )  
               a(3) = (   0.000000   0.000000   1.732050 )  

     reciprocal axes: (cart. coord. in units 2 pi/alat)
               b(1) = (  1.000000  0.000000  0.000000 )  
               b(2) = (  0.000000  0.612377  0.000000 )  
               b(3) = (  0.000000  0.000000  0.577351 )  


     PseudoPot. # 1 for Fe read from file:
     CMP_pseudos/Fe.pbe-spn-kjpaw_psl.0.2.1.UPF
     MD5 check sum: 4338034a7fd945be4bb7db5fd3b2d142
     Pseudo is Projector augmented-wave + core cor, Zval = 16.0
     Generated using "atomic" code by A. Dal Corso  v.5.0.2 svn rev. 9415
     Shape of augmentation charge: PSQ
     Using radial grid of 1191 points,  6 beta functions with: 
                l(1) =   0
                l(2) =   0
                l(3) =   1
                l(4) =   1
                l(5) =   2
                l(6) =   2
     Q(r) pseudized with 0 coefficients 


     PseudoPot. # 2 for Al read from file:
     CMP_pseudos/Al.pbe-n-kjpaw_psl.0.1.UPF
     MD5 check sum: 9111391c6252b599ac5002cf021b5091
     Pseudo is Projector augmented-wave + core cor, Zval =  3.0
     Generated using "atomic" code by A. Dal Corso  v.5.0.2 svn rev. 9415
     Shape of augmentation charge: PSQ
     Using radial grid of 1135 points,  4 beta functions with: 
                l(1) =   0
                l(2) =   0
                l(3) =   1
                l(4) =   1
     Q(r) pseudized with 0 coefficients 


     atomic species   valence    mass     pseudopotential
     Fe               16.00    55.84500     Fe( 1.00)
     Al                3.00    26.98154     Al( 1.00)

      8 Sym. Ops., with inversion, found ( 6 have fractional translation)



   Cartesian axes

     site n.     atom                  positions (alat units)
         1        Fe     tau(   1) = (   0.7500000   1.2247358   1.5877123  )
         2        Fe     tau(   2) = (   0.2500000   0.4082453   0.1443375  )
         3        Al     tau(   3) = (   0.2500000   1.2247358   0.7216874  )
         4        Al     tau(   4) = (   0.7500000   0.4082453   1.0103624  )

     number of k points=    36  Marzari-Vanderbilt smearing, width (Ry)=  0.0050
                       cart. coord. in units 2pi/alat
        k(    1) = (   0.0000000   0.0000000   0.0000000), wk =   0.0208333
        k(    2) = (   0.0000000   0.0000000   0.1443377), wk =   0.0416667
        k(    3) = (   0.0000000   0.0000000  -0.2886753), wk =   0.0208333
        k(    4) = (   0.0000000   0.1530942   0.0000000), wk =   0.0416667
        k(    5) = (   0.0000000   0.1530942   0.1443377), wk =   0.0833333
        k(    6) = (   0.0000000   0.1530942  -0.2886753), wk =   0.0416667
        k(    7) = (   0.0000000  -0.3061885   0.0000000), wk =   0.0208333
        k(    8) = (   0.0000000  -0.3061885   0.1443377), wk =   0.0416667
        k(    9) = (   0.0000000  -0.3061885  -0.2886753), wk =   0.0208333
        k(   10) = (   0.1666667   0.0000000   0.0000000), wk =   0.0416667
        k(   11) = (   0.1666667   0.0000000   0.1443377), wk =   0.0833333
        k(   12) = (   0.1666667   0.0000000  -0.2886753), wk =   0.0416667
        k(   13) = (   0.1666667   0.1530942   0.0000000), wk =   0.0833333
        k(   14) = (   0.1666667   0.1530942   0.1443377), wk =   0.1666667
        k(   15) = (   0.1666667   0.1530942  -0.2886753), wk =   0.0833333
        k(   16) = (   0.1666667  -0.3061885   0.0000000), wk =   0.0416667
        k(   17) = (   0.1666667  -0.3061885   0.1443377), wk =   0.0833333
        k(   18) = (   0.1666667  -0.3061885  -0.2886753), wk =   0.0416667
        k(   19) = (   0.3333333   0.0000000   0.0000000), wk =   0.0416667
        k(   20) = (   0.3333333   0.0000000   0.1443377), wk =   0.0833333
        k(   21) = (   0.3333333   0.0000000  -0.2886753), wk =   0.0416667
        k(   22) = (   0.3333333   0.1530942   0.0000000), wk =   0.0833333
        k(   23) = (   0.3333333   0.1530942   0.1443377), wk =   0.1666667
        k(   24) = (   0.3333333   0.1530942  -0.2886753), wk =   0.0833333
        k(   25) = (   0.3333333  -0.3061885   0.0000000), wk =   0.0416667
        k(   26) = (   0.3333333  -0.3061885   0.1443377), wk =   0.0833333
        k(   27) = (   0.3333333  -0.3061885  -0.2886753), wk =   0.0416667
        k(   28) = (  -0.5000000   0.0000000   0.0000000), wk =   0.0208333
        k(   29) = (  -0.5000000   0.0000000   0.1443377), wk =   0.0416667
        k(   30) = (  -0.5000000   0.0000000  -0.2886753), wk =   0.0208333
        k(   31) = (  -0.5000000   0.1530942   0.0000000), wk =   0.0416667
        k(   32) = (  -0.5000000   0.1530942   0.1443377), wk =   0.0833333
        k(   33) = (  -0.5000000   0.1530942  -0.2886753), wk =   0.0416667
        k(   34) = (  -0.5000000  -0.3061885   0.0000000), wk =   0.0208333
        k(   35) = (  -0.5000000  -0.3061885   0.1443377), wk =   0.0416667
        k(   36) = (  -0.5000000  -0.3061885  -0.2886753), wk =   0.0208333

     Dense  grid:   118311 G-vectors     FFT dimensions: (  48,  72,  75)

     Smooth grid:    29857 G-vectors     FFT dimensions: (  30,  48,  48)

     Estimated max dynamical RAM per process >     488.58 MB

     Check: negative core charge=   -0.000012

     Initial potential from superposition of free atoms

     starting charge      37.9945, renormalised to      38.0000
     Starting wfcs are   34 randomized atomic wfcs
     Checking if some PAW data can be deallocated... 

     total cpu time spent up to now is        4.0 secs

     Self-consistent Calculation

     iteration #  1     ecut=    70.00 Ry     beta= 0.70
     Davidson diagonalization with overlap
     ethr =  1.00E-02,  avg # of iterations =  2.4

     Threshold (ethr) on eigenvalues was too large:
     Diagonalizing with lowered threshold

     Davidson diagonalization with overlap
     ethr =  9.04E-04,  avg # of iterations =  2.5

     total cpu time spent up to now is       15.4 secs

     total energy              =    -737.29492429 Ry
     estimated scf accuracy    <       0.31535119 Ry

     iteration #  2     ecut=    70.00 Ry     beta= 0.70
     Davidson diagonalization with overlap
     ethr =  8.30E-04,  avg # of iterations =  5.6

     total cpu time spent up to now is       25.3 secs

     total energy              =    -736.76591409 Ry
     estimated scf accuracy    <       8.11271126 Ry

     iteration #  3     ecut=    70.00 Ry     beta= 0.70
     Davidson diagonalization with overlap
     ethr =  8.30E-04,  avg # of iterations =  5.1

     total cpu time spent up to now is       33.2 secs

     total energy              =    -737.50553597 Ry
     estimated scf accuracy    <       0.01205191 Ry

     iteration #  4     ecut=    70.00 Ry     beta= 0.70
     Davidson diagonalization with overlap
     ethr =  3.17E-05,  avg # of iterations =  5.8

     total cpu time spent up to now is       41.0 secs

     total energy              =    -737.51147521 Ry
     estimated scf accuracy    <       0.00096403 Ry

     iteration #  5     ecut=    70.00 Ry     beta= 0.70
     Davidson diagonalization with overlap
     ethr =  2.54E-06,  avg # of iterations =  5.4

     total cpu time spent up to now is       49.3 secs

     total energy              =    -737.51198229 Ry
     estimated scf accuracy    <       0.00008199 Ry

     iteration #  6     ecut=    70.00 Ry     beta= 0.70
     Davidson diagonalization with overlap
     ethr =  2.16E-07,  avg # of iterations =  5.3

     total cpu time spent up to now is       56.8 secs

     total energy              =    -737.51203225 Ry
     estimated scf accuracy    <       0.00001538 Ry

     iteration #  7     ecut=    70.00 Ry     beta= 0.70
     Davidson diagonalization with overlap
     ethr =  4.05E-08,  avg # of iterations =  2.9

     total cpu time spent up to now is       62.6 secs

     total energy              =    -737.51203693 Ry
     estimated scf accuracy    <       0.00000354 Ry

     iteration #  8     ecut=    70.00 Ry     beta= 0.70
     Davidson diagonalization with overlap
     ethr =  9.32E-09,  avg # of iterations =  3.5

     total cpu time spent up to now is       68.6 secs

     total energy              =    -737.51203798 Ry
     estimated scf accuracy    <       0.00000011 Ry

     iteration #  9     ecut=    70.00 Ry     beta= 0.70
     Davidson diagonalization with overlap
     ethr =  3.01E-10,  avg # of iterations =  7.6

     total cpu time spent up to now is       80.7 secs

     total energy              =    -737.51203821 Ry
     estimated scf accuracy    <       0.00000003 Ry

     iteration # 10     ecut=    70.00 Ry     beta= 0.70
     Davidson diagonalization with overlap
     ethr =  7.36E-11,  avg # of iterations =  2.6

     total cpu time spent up to now is       86.9 secs

     End of self-consistent calculation

          k = 0.0000 0.0000 0.0000 (  3693 PWs)   bands (ev):

   -74.9985 -74.9785 -41.2056 -41.0712 -41.0631 -41.0250 -40.9160 -40.9149
     1.5197   7.3527   8.1447   8.4765   8.8189   9.8530   9.9933  10.6673
    10.8733  10.9990  11.5016  11.6268  12.2454  12.2883  13.3136

          k = 0.0000 0.0000 0.1443 (  3720 PWs)   bands (ev):

   -74.9985 -74.9785 -41.2062 -41.0712 -41.0635 -41.0251 -40.9161 -40.9151
     1.8654   5.9231   8.1177   8.1985   9.5743  10.0363  10.5883  10.7156
    10.8780  10.9982  11.4715  11.6351  12.0691  12.2423  14.4285

          k = 0.0000 0.0000-0.2887 (  3720 PWs)   bands (ev):

   -74.9985 -74.9785 -41.2061 -41.0713 -41.0636 -41.0253 -40.9162 -40.9149
     2.3964   4.7169   7.8931   8.6141   9.8795  10.0873  10.2905  10.8826
    10.9844  11.4354  11.4447  11.6404  12.2391  12.2774  12.6951

          k = 0.0000 0.1531 0.0000 (  3748 PWs)   bands (ev):

   -74.9956 -74.9814 -41.1882 -41.0940 -41.0578 -41.0310 -40.9146 -40.9131
     1.9950   5.5194   8.4588   8.5129   9.2706   9.7082  10.5480  10.9199
    10.9719  10.9928  11.5150  11.6013  12.1105  12.1621  14.8105

          k = 0.0000 0.1531 0.1443 (  3745 PWs)   bands (ev):

   -74.9956 -74.9814 -41.1883 -41.0939 -41.0580 -41.0310 -40.9146 -40.9130
     2.3297   5.7016   6.5523   8.7026   9.6962   9.8466  10.4954  10.7074
    10.9693  11.2955  11.5116  11.5854  12.1164  12.1873  14.7493

          k = 0.0000 0.1531-0.2887 (  3738 PWs)   bands (ev):

   -74.9956 -74.9814 -41.1881 -41.0937 -41.0578 -41.0308 -40.9149 -40.9130
     2.8342   5.1807   6.2135   8.2239   9.9478   9.9949  10.4148  10.4868
    10.9665  11.5081  11.5704  11.6793  11.6990  12.1218  14.5774

          k = 0.0000-0.3062 0.0000 (  3738 PWs)   bands (ev):

   -74.9885 -74.9885 -41.1429 -41.1429 -41.0443 -41.0443 -40.9120 -40.9120
     3.3812   3.3812   8.7677   8.7677   9.5814   9.5814  10.5186  10.5186
    11.2351  11.2351  11.7022  11.7022  11.8412  11.8412  14.1583

          k = 0.0000-0.3062 0.1443 (  3756 PWs)   bands (ev):

   -74.9885 -74.9885 -41.1431 -41.1431 -41.0445 -41.0445 -40.9122 -40.9122
     3.6831   3.6831   7.6396   7.6396   9.8020   9.8020  10.3119  10.3119
    11.2238  11.2238  11.7960  11.7960  11.8462  11.8462  15.8639

          k = 0.0000-0.3062-0.2887 (  3752 PWs)   bands (ev):

   -74.9885 -74.9885 -41.1430 -41.1430 -41.0444 -41.0444 -40.9123 -40.9123
     4.1150   4.1150   6.6596   6.6596   9.8921   9.8921  10.2007  10.2007
    11.2128  11.2128  11.8511  11.8511  11.8513  11.8513  18.1627

          k = 0.1667 0.0000 0.0000 (  3717 PWs)   bands (ev):

   -74.9946 -74.9773 -41.1947 -41.0876 -41.0778 -41.0549 -40.9129 -40.9119
     2.0853   7.6908   8.5289   8.8324   9.2237   9.8799   9.9587  10.6655
    10.7348  10.8251  11.4287  11.8745  12.4665  12.5289  13.4221

          k = 0.1667 0.0000 0.1443 (  3727 PWs)   bands (ev):

   -74.9946 -74.9773 -41.1948 -41.0877 -41.0781 -41.0550 -40.9130 -40.9119
     2.4173   6.4188   8.4701   8.6339   9.7918   9.9773  10.4061  10.6901
    10.6919  10.9995  11.3930  11.4715  12.4365  12.5281  14.8099

          k = 0.1667 0.0000-0.2887 (  3746 PWs)   bands (ev):

   -74.9946 -74.9773 -41.1950 -41.0877 -41.0783 -41.0552 -40.9134 -40.9120
     2.9163   5.2962   8.2516   8.9626   9.9243  10.2519  10.5467  10.6114
    10.7256  11.2659  11.4476  11.5349  11.5786  12.8478  13.9015

          k = 0.1667 0.1531 0.0000 (  3740 PWs)   bands (ev):

   -74.9921 -74.9799 -41.1818 -41.1038 -41.0802 -41.0526 -40.9118 -40.9110
     2.5538   6.0197   8.7039   8.8609   9.5481   9.7235  10.5508  10.5715
    10.8078  10.9808  11.6281  11.6333  12.4890  12.5105  14.9717

          k = 0.1667 0.1531 0.1443 (  3728 PWs)   bands (ev):

   -74.9921 -74.9799 -41.1817 -41.1039 -41.0800 -41.0526 -40.9118 -40.9109
     2.8752   6.1756   7.0687   9.0743   9.7616   9.9322  10.3815  10.5600
    10.7689  11.2293  11.4724  11.6166  11.9441  12.9140  14.9450

          k = 0.1667 0.1531-0.2887 (  3726 PWs)   bands (ev):

   -74.9921 -74.9799 -41.1816 -41.1038 -41.0801 -41.0526 -40.9121 -40.9107
     3.3500   5.7282   6.6994   8.6918  10.0713  10.1049  10.1649  10.5577
    10.7160  11.2712  11.2965  11.6682  11.8081  12.6056  14.8470

          k = 0.1667-0.3062 0.0000 (  3742 PWs)   bands (ev):

   -74.9860 -74.9860 -41.1468 -41.1468 -41.0635 -41.0635 -40.9104 -40.9104
     3.9204   3.9204   9.0946   9.0946   9.7733   9.7733  10.1874  10.1874
    11.1232  11.1232  11.6239  11.6239  12.5569  12.5569  14.3658

          k = 0.1667-0.3062 0.1443 (  3742 PWs)   bands (ev):

   -74.9860 -74.9860 -41.1470 -41.1470 -41.0636 -41.0636 -40.9102 -40.9102
     4.2088   4.2088   8.0916   8.0916   9.9742   9.9742  10.1870  10.1870
    11.0585  11.0585  11.7105  11.7105  12.0139  12.0139  16.3643

          k = 0.1667-0.3062-0.2887 (  3752 PWs)   bands (ev):

   -74.9860 -74.9860 -41.1471 -41.1471 -41.0636 -41.0636 -40.9104 -40.9104
     4.6133   4.6133   7.1957   7.1957  10.0514  10.0514  10.1890  10.1890
    10.9877  10.9877  11.6518  11.6518  11.9562  11.9562  17.7951

          k = 0.3333 0.0000 0.0000 (  3742 PWs)   bands (ev):

   -74.9860 -74.9760 -41.1654 -41.1346 -41.1159 -41.0980 -40.9069 -40.9061
     3.7373   8.3543   8.9937   9.0982   9.4729   9.7506  10.1380  10.5185
    10.9091  10.9273  11.8858  12.4967  12.9879  13.0719  13.1646

          k = 0.3333 0.0000 0.1443 (  3751 PWs)   bands (ev):

   -74.9860 -74.9760 -41.1655 -41.1347 -41.1159 -41.0979 -40.9069 -40.9064
     4.0268   7.6701   9.0619   9.2168   9.4133   9.8408  10.0466  10.5679
    10.8364  11.1726  11.4536  11.8971  12.3969  13.1297  14.1943

          k = 0.3333 0.0000-0.2887 (  3758 PWs)   bands (ev):

   -74.9860 -74.9760 -41.1655 -41.1346 -41.1159 -41.0980 -40.9073 -40.9065
     4.4340   6.8916   9.0591   9.2195   9.4847   9.8584  10.4788  10.5089
    10.5948  11.2689  11.4113  11.6499  11.9327  13.3775  14.8943

          k = 0.3333 0.1531 0.0000 (  3741 PWs)   bands (ev):

   -74.9845 -74.9775 -41.1746 -41.1432 -41.1126 -41.0831 -40.9068 -40.9066
     4.1809   7.3636   8.9155   9.1996   9.5040   9.9542  10.1700  10.2263
    10.8772  11.1153  11.8535  12.0787  12.8975  13.3111  13.4643

          k = 0.3333 0.1531 0.1443 (  3748 PWs)   bands (ev):

   -74.9845 -74.9775 -41.1747 -41.1432 -41.1126 -41.0831 -40.9069 -40.9066
     4.4617   7.4506   8.3236   9.2180   9.5185   9.8647  10.1966  10.4074
    11.0198  11.0835  11.5011  11.8436  11.9717  12.8806  14.7516

          k = 0.3333 0.1531-0.2887 (  3742 PWs)   bands (ev):

   -74.9845 -74.9775 -41.1746 -41.1432 -41.1126 -41.0830 -40.9069 -40.9066
     4.8521   7.1636   8.0815   9.4465   9.5105   9.6733  10.3296  10.4629
    10.5001  11.0094  11.4545  11.6548  11.8794  13.5086  13.7205

          k = 0.3333-0.3062 0.0000 (  3754 PWs)   bands (ev):

   -74.9810 -74.9810 -41.1699 -41.1699 -41.0871 -41.0871 -40.9067 -40.9067
     5.4668   5.4668   9.3901   9.3901   9.6582   9.6582  10.2500  10.2500
    10.9562  10.9562  11.6349  11.6349  13.3766  13.3766  14.2666

          k = 0.3333-0.3062 0.1443 (  3734 PWs)   bands (ev):

   -74.9810 -74.9810 -41.1696 -41.1696 -41.0870 -41.0870 -40.9066 -40.9066
     5.7177   5.7177   8.8800   8.8800   9.8784   9.8784  10.3042  10.3042
    10.9581  10.9581  11.4989  11.4989  12.2652  12.2652  14.4932

          k = 0.3333-0.3062-0.2887 (  3732 PWs)   bands (ev):

   -74.9810 -74.9810 -41.1695 -41.1695 -41.0870 -41.0870 -40.9067 -40.9067
     6.0471   6.0471   8.4502   8.4502   9.8391   9.8391  10.4370  10.4370
    10.5727  10.5727  11.5392  11.5392  12.1103  12.1103  14.4676

          k =-0.5000 0.0000 0.0000 (  3734 PWs)   bands (ev):

   -74.9785 -74.9785 -41.1518 -41.1518 -41.1291 -41.1291 -40.9036 -40.9036
     6.3087   6.3087   8.8458   8.8458   9.5786   9.5786  10.8327  10.8327
    10.9747  10.9747  12.4011  12.4011  14.2933  14.2934  14.5321

          k =-0.5000 0.0000 0.1443 (  3768 PWs)   bands (ev):

   -74.9785 -74.9785 -41.1521 -41.1521 -41.1293 -41.1293 -40.9039 -40.9039
     6.5156   6.5156   8.8508   8.8508   9.5358   9.5358  10.7579  10.7579
    11.0211  11.0211  11.8515  11.8515  13.2560  13.2560  14.6482

          k =-0.5000 0.0000-0.2887 (  3764 PWs)   bands (ev):

   -74.9785 -74.9785 -41.1521 -41.1521 -41.1291 -41.1291 -40.9040 -40.9040
     6.7595   6.7595   8.9372   8.9372   9.4958   9.4958  10.2980  10.2980
    11.0645  11.0645  11.4508  11.4508  13.1978  13.1978  14.7797

          k =-0.5000 0.1531 0.0000 (  3746 PWs)   bands (ev):

   -74.9785 -74.9785 -41.1756 -41.1756 -41.1049 -41.1049 -40.9043 -40.9043
     6.6553   6.6553   9.0248   9.0248   9.4197   9.4197  10.3044  10.3044
    10.7387  10.7387  12.3835  12.3835  12.9787  12.9787  14.8843

          k =-0.5000 0.1531 0.1443 (  3760 PWs)   bands (ev):

   -74.9785 -74.9785 -41.1757 -41.1757 -41.1050 -41.1050 -40.9045 -40.9045
     6.8788   6.8788   8.7241   8.7241   9.8223   9.8223  10.1952  10.1952
    11.0062  11.0062  11.7097  11.7097  12.6308  12.6308  14.3370

          k =-0.5000 0.1531-0.2887 (  3756 PWs)   bands (ev):

   -74.9785 -74.9785 -41.1757 -41.1757 -41.1048 -41.1048 -40.9045 -40.9045
     7.1323   7.1323   8.7155   8.7155   9.8597   9.8597  10.1055  10.1055
    10.8180  10.8180  11.4195  11.4195  12.9364  12.9364  13.6142

          k =-0.5000-0.3062 0.0000 (  3720 PWs)   bands (ev):

   -74.9785 -74.9785 -41.1884 -41.1884 -41.0910 -41.0910 -40.9047 -40.9047
     7.2437   7.2437   8.6778   8.6778   9.3556   9.3556   9.8116   9.8116
    10.9166  10.9166  11.8619  11.8619  12.7221  12.7221  15.6066

          k =-0.5000-0.3062 0.1443 (  3760 PWs)   bands (ev):

   -74.9785 -74.9785 -41.1887 -41.1887 -41.0912 -41.0912 -40.9051 -40.9051
     7.6150   7.6150   8.1797   8.1797   9.6728   9.6728  10.2215  10.2215
    10.9739  10.9739  11.3630  11.3630  12.3438  12.3438  14.7219

          k =-0.5000-0.3062-0.2887 (  3736 PWs)   bands (ev):

   -74.9785 -74.9785 -41.1885 -41.1885 -41.0911 -41.0911 -40.9049 -40.9049
     7.9303   7.9303   8.3054   8.3054   9.1530   9.1530  10.6797  10.6797
    10.7879  10.7879  11.5687  11.5687  12.2429  12.2429  13.2088

     the Fermi energy is    11.6103 ev

!    total energy              =    -737.51203821 Ry
     total all-electron energy =     -6062.390673 Ry
     estimated scf accuracy    <          1.0E-09 Ry
     smearing contrib. (-TS)   =       0.00000388 Ry
     internal energy E=F+TS    =    -737.51204210 Ry

     The total energy is F=E-TS. E is the sum of the following terms:
     one-electron contribution =    -380.54690555 Ry
     hartree contribution      =     207.79436149 Ry
     xc contribution           =     -75.40945633 Ry
     ewald contribution        =    -268.57378351 Ry
     one-center paw contrib.   =    -220.77625819 Ry

     convergence has been achieved in  10 iterations

     Forces acting on atoms (cartesian axes, Ry/au):

     atom    1 type  1   force =     0.00000000    0.00000000   -0.00787110
     atom    2 type  1   force =     0.00000000    0.00000000    0.00787110
     atom    3 type  2   force =     0.00000000    0.00000000   -0.02007072
     atom    4 type  2   force =     0.00000000    0.00000000    0.02007072

     Total force =     0.030489     Total SCF correction =     0.000065


     Computing stress (Cartesian axis) and pressure

          total   stress  (Ry/bohr**3)                   (kbar)     P=     -185.75
  -0.00066024   0.00000000   0.00000000          -97.12        0.00        0.00
   0.00000000  -0.00119844   0.00000000            0.00     -176.30        0.00
   0.00000000   0.00000000  -0.00192946            0.00        0.00     -283.83


     Writing all to output data dir ./FeAl.save/ :
     XML data file, charge density, pseudopotentials, collected wavefunctions

     init_run     :      3.73s CPU      3.94s WALL (       1 calls)
     electrons    :     79.47s CPU     82.84s WALL (       1 calls)
     forces       :      2.20s CPU      2.49s WALL (       1 calls)
     stress       :      5.65s CPU      6.02s WALL (       1 calls)

     Called by init_run:
     wfcinit      :      2.27s CPU      2.27s WALL (       1 calls)
     potinit      :      0.56s CPU      0.62s WALL (       1 calls)
     hinit0       :      0.60s CPU      0.60s WALL (       1 calls)

     Called by electrons:
     c_bands      :     63.92s CPU     64.13s WALL (      11 calls)
     sum_band     :      8.61s CPU     10.35s WALL (      11 calls)
     v_of_rho     :      0.75s CPU      0.78s WALL (      11 calls)
     newd         :      3.37s CPU      4.90s WALL (      11 calls)
     PAW_pot      :      3.32s CPU      3.36s WALL (      11 calls)
     mix_rho      :      0.07s CPU      0.07s WALL (      11 calls)

     Called by c_bands:
     init_us_2    :      0.81s CPU      0.81s WALL (     900 calls)
     cegterg      :     62.29s CPU     62.50s WALL (     396 calls)

     Called by *egterg:
     cdiaghg      :      1.04s CPU      1.04s WALL (    2110 calls)
     h_psi        :     30.81s CPU     30.92s WALL (    2182 calls)
     s_psi        :      6.84s CPU      6.91s WALL (    2182 calls)
     g_psi        :      0.19s CPU      0.19s WALL (    1750 calls)

     Called by h_psi:
     h_psi:calbec :      6.88s CPU      6.88s WALL (    2182 calls)
     vloc_psi     :     16.87s CPU     16.90s WALL (    2182 calls)
                                        0.00s GPU  (    2182 calls)
     add_vuspsi   :      6.88s CPU      6.96s WALL (    2182 calls)

     General routines
     calbec       :     12.57s CPU     12.55s WALL (    3190 calls)
     fft          :      0.61s CPU      0.61s WALL (     167 calls)
     ffts         :      0.17s CPU      0.17s WALL (      22 calls)
     fftw         :     16.22s CPU     16.25s WALL (   68678 calls)
     interpolate  :      0.19s CPU      0.19s WALL (      11 calls)

     Parallel routines

     PWSCF        :   1m31.15s CPU   1m35.45s WALL


   This run was terminated on:   1:35:39   5Jul2026            

=------------------------------------------------------------------------------=
   JOB DONE.
=------------------------------------------------------------------------------=
