&CONTROL
   calculation      = 'scf'
   verbosity        = 'low'
   tstress          = .true.
   tprnfor          = .true.
   outdir           = '.'
   prefix           = 'NaCl_Full'
   pseudo_dir       = '/home/yluo/ASE/10_bonding'
/
&SYSTEM
   ecutwfc          = 60.0
   ecutrho          = 360.0
   occupations      = 'smearing'
   degauss          = 0.005
   smearing         = 'mv'
   ntyp             = 2
   nat              = 8
   ibrav            = 0
/
&ELECTRONS
   conv_thr         = 1e-08
   mixing_beta      = 0.7
/
&IONS
/
&CELL
/
&FCP
/
&RISM
/
ATOMIC_SPECIES
Na 22.98976928 Na.pbe-spn-kjpaw_psl.0.2.UPF
Cl 35.45 Cl.pbe-n-kjpaw_psl.0.1.UPF

K_POINTS automatic
7 7 7  0 0 0

CELL_PARAMETERS angstrom
5.64056000000000 0.00000000000000 0.00000000000000
0.00000000000000 5.64056000000000 0.00000000000000
0.00000000000000 0.00000000000000 5.64056000000000

ATOMIC_POSITIONS angstrom
Na 0.0000000000 0.0000000000 0.0000000000  
Na 0.0000000000 2.8202800000 2.8202800000  
Na 2.8202800000 0.0000000000 2.8202800000  
Na 2.8202800000 2.8202800000 0.0000000000  
Cl 2.8202800000 2.8202800000 2.8202800000  
Cl 2.8202800000 0.0000000000 0.0000000000  
Cl 0.0000000000 2.8202800000 0.0000000000  
Cl 0.0000000000 0.0000000000 2.8202800000  

