
     Program PWSCF v.7.5 starts on 28Jul2026 at 20: 1:47 

     This program is part of the open-source Quantum ESPRESSO suite
     for quantum simulation of materials; please cite
         "P. Giannozzi et al., J. Phys.:Condens. Matter 21 395502 (2009);
         "P. Giannozzi et al., J. Phys.:Condens. Matter 29 465901 (2017);
         "P. Giannozzi et al., J. Chem. Phys. 152 154105 (2020);
          URL http://www.quantum-espresso.org", 
     in publications or presentations arising from this work. More details at
     http://www.quantum-espresso.org/quote

     Parallel version (MPI), running on     1 processors

     MPI processes distributed on     1 nodes
     11406 MiB available memory on the printing compute node when the environment starts

     Reading input from espresso.pwi
Warning: card &CELL ignored
Warning: card &FCP ignored
Warning: card &RISM ignored

     Current dimensions of program PWSCF are:
     Max number of different atomic species (ntypx) = 10
     Max number of k-points (npk) =  40000
     Max angular momentum in pseudopotentials (lmaxx) =  4
     file Na.pbe-spn-kjpaw_psl.0.2.UPF: wavefunction(s)  2P 3P renormalized
     file Cl.pbe-n-kjpaw_psl.0.1.UPF: wavefunction(s)  3S 3P renormalized
     Found identity + (  0.0000 -0.5000 -0.5000) symmetry
     This is a supercell, fractional translations are disabled
     Message from routine setup:
     using ibrav=0 with symmetry is DISCOURAGED, use correct ibrav instead

     Subspace diagonalization in iterative solution of the eigenvalue problem:
     a serial algorithm will be used


     G-vector sticks info
     --------------------
     sticks:   dense  smooth     PW     G-vecs:    dense   smooth      PW
     Sum        3249    2177    593               139849    76117   11075

     Using Slab Decomposition



     bravais-lattice index     =            0
     lattice parameter (alat)  =      10.6591  a.u.
     unit-cell volume          =    1211.0533 (a.u.)^3
     number of atoms/cell      =            8
     number of atomic types    =            2
     number of electrons       =        64.00
     number of Kohn-Sham states=           38
     kinetic-energy cutoff     =      60.0000  Ry
     charge density cutoff     =     360.0000  Ry
     scf convergence threshold =      1.0E-08
     mixing beta               =       0.7000
     number of iterations used =            8  plain     mixing
     Exchange-correlation= SLA  PW   PBX  PBC
                           (   1   4   3   4   0   0   0)

     celldm(1)=  10.659114  celldm(2)=   0.000000  celldm(3)=   0.000000
     celldm(4)=   0.000000  celldm(5)=   0.000000  celldm(6)=   0.000000

     crystal axes: (cart. coord. in units of alat)
               a(1) = (   1.000000   0.000000   0.000000 )  
               a(2) = (   0.000000   1.000000   0.000000 )  
               a(3) = (   0.000000   0.000000   1.000000 )  

     reciprocal axes: (cart. coord. in units 2 pi/alat)
               b(1) = (  1.000000  0.000000  0.000000 )  
               b(2) = (  0.000000  1.000000  0.000000 )  
               b(3) = (  0.000000  0.000000  1.000000 )  


     PseudoPot. # 1 for Na read from file:
     /home/yluo/ASE/10_bonding/Na.pbe-spn-kjpaw_psl.0.2.UPF
     MD5 check sum: b31cf241f857c4c21d04bf145cb1ea45
     Pseudo is Projector augmented-wave, Zval =  9.0
     Generated using "atomic" code by A. Dal Corso  v.5.0.2 svn rev. 9415
     Shape of augmentation charge: PSQ
     Using radial grid of 1121 points,  4 beta functions with: 
                l(1) =   0
                l(2) =   0
                l(3) =   1
                l(4) =   1
     Q(r) pseudized with 0 coefficients 


     PseudoPot. # 2 for Cl read from file:
     /home/yluo/ASE/10_bonding/Cl.pbe-n-kjpaw_psl.0.1.UPF
     MD5 check sum: 0988cc5665377067f4339999778e3894
     Pseudo is Projector augmented-wave + core cor, Zval =  7.0
     Generated using "atomic" code by A. Dal Corso  v.5.0.2 svn rev. 9415
     Shape of augmentation charge: PSQ
     Using radial grid of 1157 points,  4 beta functions with: 
                l(1) =   0
                l(2) =   0
                l(3) =   1
                l(4) =   1
     Q(r) pseudized with 0 coefficients 


     atomic species   valence    mass     pseudopotential
     Na                9.00    22.98977     Na( 1.00)
     Cl                7.00    35.45000     Cl( 1.00)

     48 Sym. Ops., with inversion, found



   Cartesian axes

     site n.     atom                  positions (alat units)
         1        Na     tau(   1) = (   0.0000000   0.0000000   0.0000000  )
         2        Na     tau(   2) = (   0.0000000   0.5000000   0.5000000  )
         3        Na     tau(   3) = (   0.5000000   0.0000000   0.5000000  )
         4        Na     tau(   4) = (   0.5000000   0.5000000   0.0000000  )
         5        Cl     tau(   5) = (   0.5000000   0.5000000   0.5000000  )
         6        Cl     tau(   6) = (   0.5000000   0.0000000   0.0000000  )
         7        Cl     tau(   7) = (   0.0000000   0.5000000   0.0000000  )
         8        Cl     tau(   8) = (   0.0000000   0.0000000   0.5000000  )

     number of k points=    20  Marzari-Vanderbilt smearing, width (Ry)=  0.0050
                       cart. coord. in units 2pi/alat
        k(    1) = (   0.0000000   0.0000000   0.0000000), wk =   0.0058309
        k(    2) = (   0.0000000   0.0000000   0.1428571), wk =   0.0349854
        k(    3) = (   0.0000000   0.0000000   0.2857143), wk =   0.0349854
        k(    4) = (   0.0000000   0.0000000   0.4285714), wk =   0.0349854
        k(    5) = (   0.0000000   0.1428571   0.1428571), wk =   0.0699708
        k(    6) = (   0.0000000   0.1428571   0.2857143), wk =   0.1399417
        k(    7) = (   0.0000000   0.1428571   0.4285714), wk =   0.1399417
        k(    8) = (   0.0000000   0.2857143   0.2857143), wk =   0.0699708
        k(    9) = (   0.0000000   0.2857143   0.4285714), wk =   0.1399417
        k(   10) = (   0.0000000   0.4285714   0.4285714), wk =   0.0699708
        k(   11) = (   0.1428571   0.1428571   0.1428571), wk =   0.0466472
        k(   12) = (   0.1428571   0.1428571   0.2857143), wk =   0.1399417
        k(   13) = (   0.1428571   0.1428571   0.4285714), wk =   0.1399417
        k(   14) = (   0.1428571   0.2857143   0.2857143), wk =   0.1399417
        k(   15) = (   0.1428571   0.2857143   0.4285714), wk =   0.2798834
        k(   16) = (   0.1428571   0.4285714   0.4285714), wk =   0.1399417
        k(   17) = (   0.2857143   0.2857143   0.2857143), wk =   0.0466472
        k(   18) = (   0.2857143   0.2857143   0.4285714), wk =   0.1399417
        k(   19) = (   0.2857143   0.4285714   0.4285714), wk =   0.1399417
        k(   20) = (   0.4285714   0.4285714   0.4285714), wk =   0.0466472

     Dense  grid:   139849 G-vectors     FFT dimensions: (  72,  72,  72)

     Smooth grid:    76117 G-vectors     FFT dimensions: (  54,  54,  54)

     Estimated max dynamical RAM per process >     327.62 MB

     Check: negative core charge=   -0.000003

     Initial potential from superposition of free atoms

     starting charge      61.9966, renormalised to      64.0000
     Starting wfcs are   48 randomized atomic wfcs
     Checking if some PAW data can be deallocated... 

     total cpu time spent up to now is       11.3 secs

     Self-consistent Calculation

     iteration #  1     ecut=    60.00 Ry     beta= 0.70
     Davidson diagonalization with overlap
     ethr =  1.00E-02,  avg # of iterations =  4.5

     total cpu time spent up to now is       35.8 secs

     total energy              =    -755.16842601 Ry
     estimated scf accuracy    <       0.64244646 Ry

     iteration #  2     ecut=    60.00 Ry     beta= 0.70
     Davidson diagonalization with overlap
     ethr =  1.00E-03,  avg # of iterations =  3.5

     total cpu time spent up to now is       64.8 secs

     total energy              =    -755.38691363 Ry
     estimated scf accuracy    <       0.07031608 Ry

     iteration #  3     ecut=    60.00 Ry     beta= 0.70
     Davidson diagonalization with overlap
     ethr =  1.10E-04,  avg # of iterations =  6.2

     total cpu time spent up to now is       96.3 secs

     total energy              =    -755.40353597 Ry
     estimated scf accuracy    <       0.00206359 Ry

     iteration #  4     ecut=    60.00 Ry     beta= 0.70
     Davidson diagonalization with overlap
     c_bands:  1 eigenvalues not converged
     c_bands:  2 eigenvalues not converged
     c_bands:  1 eigenvalues not converged
     c_bands:  2 eigenvalues not converged
     c_bands:  1 eigenvalues not converged
     ethr =  3.22E-06,  avg # of iterations = 13.9

     total cpu time spent up to now is      143.6 secs

     total energy              =    -755.40522879 Ry
     estimated scf accuracy    <       0.00020890 Ry

     iteration #  5     ecut=    60.00 Ry     beta= 0.70
     Davidson diagonalization with overlap
     c_bands:  1 eigenvalues not converged
     ethr =  3.26E-07,  avg # of iterations =  5.7

     total cpu time spent up to now is      173.8 secs

     total energy              =    -755.40527524 Ry
     estimated scf accuracy    <       0.00000650 Ry

     iteration #  6     ecut=    60.00 Ry     beta= 0.70
     Davidson diagonalization with overlap
     ethr =  1.02E-08,  avg # of iterations =  5.9

     total cpu time spent up to now is      224.3 secs

     total energy              =    -755.40528790 Ry
     estimated scf accuracy    <       0.00000478 Ry

     iteration #  7     ecut=    60.00 Ry     beta= 0.70
     Davidson diagonalization with overlap
     ethr =  7.47E-09,  avg # of iterations =  2.0

     total cpu time spent up to now is      248.5 secs

     total energy              =    -755.40528777 Ry
     estimated scf accuracy    <       0.00000071 Ry

     iteration #  8     ecut=    60.00 Ry     beta= 0.70
     Davidson diagonalization with overlap
     ethr =  1.12E-09,  avg # of iterations =  3.2

     total cpu time spent up to now is      278.6 secs

     total energy              =    -755.40528819 Ry
     estimated scf accuracy    <       0.00000033 Ry

     iteration #  9     ecut=    60.00 Ry     beta= 0.70
     Davidson diagonalization with overlap
     ethr =  5.15E-10,  avg # of iterations =  2.0

     total cpu time spent up to now is      303.4 secs

     total energy              =    -755.40528817 Ry
     estimated scf accuracy    <       0.00000006 Ry

     iteration # 10     ecut=    60.00 Ry     beta= 0.70
     Davidson diagonalization with overlap
     ethr =  9.87E-11,  avg # of iterations =  2.6

     total cpu time spent up to now is      329.2 secs

     End of self-consistent calculation

          k = 0.0000 0.0000 0.0000 (  9459 PWs)   bands (ev):

   -47.8716 -47.8706 -47.8706 -47.8706 -19.8029 -19.8029 -19.8029 -19.7910
   -19.7910 -19.7910 -19.7910 -19.7910 -19.7910 -19.7829 -19.7829 -19.7829
   -11.6192 -11.2381 -11.2381 -11.2381  -0.6199  -0.6199  -0.6199   0.4425
     0.4425   0.4425   0.4425   0.4425   0.4425   1.0375   1.0375   1.0375
     6.1411   8.5567   8.5567   8.5568   9.0921   9.0921

          k = 0.0000 0.0000 0.1429 (  9530 PWs)   bands (ev):

   -47.8716 -47.8706 -47.8706 -47.8706 -19.8024 -19.8023 -19.8023 -19.7916
   -19.7916 -19.7914 -19.7914 -19.7906 -19.7906 -19.7843 -19.7833 -19.7833
   -11.5985 -11.2549 -11.2350 -11.2350  -0.5768  -0.5768  -0.5742   0.3770
     0.3770   0.4124   0.4124   0.4687   0.4687   0.8951   1.0043   1.0043
     6.3727   8.6235   8.7348   8.7348   9.1796   9.2543

          k = 0.0000 0.0000 0.2857 (  9494 PWs)   bands (ev):

   -47.8714 -47.8708 -47.8706 -47.8706 -19.8007 -19.8007 -19.8005 -19.7932
   -19.7932 -19.7922 -19.7922 -19.7895 -19.7895 -19.7880 -19.7844 -19.7844
   -11.5414 -11.3032 -11.2280 -11.2280  -0.4519  -0.4519  -0.4318   0.2030
     0.2030   0.3463   0.3463   0.5438   0.5438   0.5522   0.9135   0.9135
     6.9709   8.6918   9.2085   9.2085   9.4376   9.7049

          k = 0.0000 0.0000 0.4286 (  9502 PWs)   bands (ev):

   -47.8712 -47.8710 -47.8706 -47.8706 -19.7983 -19.7983 -19.7972 -19.7956
   -19.7956 -19.7929 -19.7929 -19.7928 -19.7878 -19.7878 -19.7860 -19.7860
   -11.4614 -11.3762 -11.2224 -11.2224  -0.2597  -0.2597  -0.1850  -0.0275
    -0.0275   0.1581   0.2947   0.2947   0.6566   0.6566   0.7883   0.7883
     7.7355   8.4125   9.7360   9.7360   9.8606  10.3501

          k = 0.0000 0.1429 0.1429 (  9489 PWs)   bands (ev):

   -47.8715 -47.8706 -47.8706 -47.8706 -19.8021 -19.8021 -19.8018 -19.7936
   -19.7912 -19.7912 -19.7908 -19.7908 -19.7902 -19.7864 -19.7837 -19.7829
   -11.5786 -11.2508 -11.2508 -11.2329  -0.5433  -0.5433  -0.5341   0.2327
     0.4046   0.4046   0.4472   0.4472   0.4772   0.7310   0.9690   1.0152
     6.5814   8.8012   8.8012   8.8533   9.3359   9.3385

          k = 0.0000 0.1429 0.2857 (  9509 PWs)   bands (ev):

   -47.8714 -47.8708 -47.8706 -47.8706 -19.8013 -19.8009 -19.8001 -19.7961
   -19.7928 -19.7910 -19.7903 -19.7900 -19.7900 -19.7892 -19.7848 -19.7836
   -11.5236 -11.2964 -11.2410 -11.2286  -0.4555  -0.4333  -0.4108   0.0356
     0.2338   0.4062   0.4109   0.4724   0.4835   0.5428   0.8731   0.9495
     7.1332   8.8581   9.2246   9.2794   9.5777   9.7700

          k = 0.0000 0.1429 0.4286 (  9498 PWs)   bands (ev):

   -47.8712 -47.8710 -47.8706 -47.8706 -19.8001 -19.7985 -19.7984 -19.7977
   -19.7951 -19.7947 -19.7909 -19.7904 -19.7883 -19.7871 -19.7865 -19.7851
   -11.4469 -11.3656 -11.2314 -11.2269  -0.3229  -0.2308  -0.2214  -0.1566
     0.0073   0.0631   0.3917   0.4240   0.6021   0.6777   0.7409   0.8241
     7.8627   8.5442   9.7774   9.8436  10.2889  10.7143

          k = 0.0000 0.2857 0.2857 (  9509 PWs)   bands (ev):

   -47.8713 -47.8707 -47.8707 -47.8706 -19.8018 -19.8018 -19.7992 -19.7985
   -19.7943 -19.7916 -19.7915 -19.7885 -19.7885 -19.7883 -19.7861 -19.7832
   -11.4749 -11.2789 -11.2789 -11.2319  -0.4320  -0.4320  -0.2924  -0.1719
     0.1372   0.3223   0.3223   0.5503   0.5503   0.5725   0.7633   0.9478
     7.5800   9.3065   9.3065   9.3980   9.9591  10.2076

          k = 0.0000 0.2857 0.4286 (  9475 PWs)   bands (ev):

   -47.8711 -47.8709 -47.8707 -47.8707 -19.8022 -19.8014 -19.8009 -19.7983
   -19.7963 -19.7938 -19.7898 -19.7879 -19.7878 -19.7877 -19.7860 -19.7841
   -11.4076 -11.3375 -11.2581 -11.2413  -0.4062  -0.3300  -0.3249  -0.1322
    -0.1109   0.1074   0.4559   0.5748   0.5961   0.6128   0.7182   0.8630
     8.2132   8.8870   9.7709   9.8495  10.2536  10.3312

          k = 0.0000 0.4286 0.4286 (  9498 PWs)   bands (ev):

   -47.8710 -47.8708 -47.8708 -47.8707 -19.8031 -19.8028 -19.8028 -19.8014
   -19.7942 -19.7919 -19.7919 -19.7897 -19.7860 -19.7855 -19.7855 -19.7842
   -11.3546 -11.3011 -11.3011 -11.2667  -0.4160  -0.4103  -0.4103  -0.3115
     0.0578   0.2591   0.2591   0.4389   0.7039   0.7381   0.7381   0.8387
     8.7149   9.2945   9.2945   9.6026  10.5932  10.8512

          k = 0.1429 0.1429 0.1429 (  9501 PWs)   bands (ev):

   -47.8715 -47.8706 -47.8706 -47.8706 -19.8019 -19.8019 -19.8019 -19.7926
   -19.7926 -19.7926 -19.7899 -19.7899 -19.7899 -19.7884 -19.7833 -19.7833
   -11.5594 -11.2476 -11.2476 -11.2476  -0.5177  -0.5177  -0.5177   0.2856
     0.2856   0.2856   0.5013   0.5013   0.5013   0.5744   0.9856   0.9856
     6.7666   8.9130   8.9130   8.9130   9.5208   9.5208

          k = 0.1429 0.1429 0.2857 (  9483 PWs)   bands (ev):

   -47.8713 -47.8708 -47.8706 -47.8706 -19.8017 -19.8017 -19.8017 -19.7940
   -19.7940 -19.7924 -19.7902 -19.7895 -19.7895 -19.7888 -19.7843 -19.7837
   -11.5066 -11.2905 -11.2405 -11.2405  -0.4520  -0.4520  -0.4482   0.1319
     0.1319   0.2701   0.4233   0.5013   0.5013   0.5699   0.9044   0.9289
     7.2663   8.9473   9.2657   9.2657   9.9550   9.9559

          k = 0.1429 0.1429 0.4286 (  9497 PWs)   bands (ev):

   -47.8712 -47.8709 -47.8706 -47.8706 -19.8016 -19.8016 -19.8000 -19.7967
   -19.7946 -19.7946 -19.7896 -19.7896 -19.7876 -19.7874 -19.7858 -19.7853
   -11.4332 -11.3559 -11.2348 -11.2348  -0.3851  -0.3851  -0.2928  -0.0432
     0.0227   0.0227   0.4738   0.4738   0.6045   0.6725   0.7875   0.7917
     7.9472   8.6106   9.8082   9.8082  10.2371  10.2371

          k = 0.1429 0.2857 0.2857 (  9490 PWs)   bands (ev):

   -47.8712 -47.8707 -47.8707 -47.8707 -19.8032 -19.8032 -19.8030 -19.7966
   -19.7943 -19.7909 -19.7909 -19.7882 -19.7882 -19.7880 -19.7851 -19.7835
   -11.4602 -11.2756 -11.2756 -11.2410  -0.4835  -0.4835  -0.4637   0.0004
     0.0563   0.3260   0.3260   0.5855   0.5855   0.5900   0.8257   0.9280
     7.6422   9.2119   9.2119   9.3649  10.1739  10.2672

          k = 0.1429 0.2857 0.4286 (  9505 PWs)   bands (ev):

   -47.8711 -47.8709 -47.8707 -47.8707 -19.8043 -19.8042 -19.8028 -19.8004
   -19.7934 -19.7921 -19.7885 -19.7876 -19.7874 -19.7866 -19.7861 -19.7843
   -11.3963 -11.3304 -11.2587 -11.2463  -0.5100  -0.4987  -0.4229  -0.2533
     0.1006   0.2114   0.5240   0.6002   0.6138   0.6927   0.7129   0.8466
     8.1924   8.7949   9.5349   9.5686  10.3934  10.4473

          k = 0.1429 0.4286 0.4286 (  9511 PWs)   bands (ev):

   -47.8710 -47.8708 -47.8708 -47.8708 -19.8056 -19.8051 -19.8050 -19.8036
   -19.7918 -19.7900 -19.7900 -19.7882 -19.7859 -19.7855 -19.7855 -19.7843
   -11.3469 -11.2977 -11.2977 -11.2677  -0.5606  -0.5311  -0.5311  -0.4377
     0.2322   0.3855   0.3855   0.5506   0.7108   0.7398   0.7398   0.8323
     8.5716   9.0427   9.0427   9.2993  10.7178  10.8171

          k = 0.2857 0.2857 0.2857 (  9507 PWs)   bands (ev):

   -47.8711 -47.8707 -47.8707 -47.8707 -19.8057 -19.8057 -19.8057 -19.8008
   -19.7901 -19.7901 -19.7901 -19.7873 -19.7873 -19.7873 -19.7842 -19.7842
   -11.4203 -11.2683 -11.2683 -11.2682  -0.5894  -0.5894  -0.5894  -0.2548
     0.3487   0.3487   0.3487   0.6394   0.6394   0.6394   0.8732   0.8732
     7.8450   9.1242   9.1242   9.1242  10.5231  10.5232

          k = 0.2857 0.2857 0.4286 (  9527 PWs)   bands (ev):

   -47.8710 -47.8709 -47.8707 -47.8707 -19.8074 -19.8074 -19.8062 -19.8044
   -19.7897 -19.7897 -19.7868 -19.7867 -19.7867 -19.7863 -19.7852 -19.7847
   -11.3664 -11.3120 -11.2623 -11.2623  -0.6666  -0.6666  -0.5956  -0.4757
     0.3758   0.3758   0.6130   0.6653   0.6653   0.7125   0.7959   0.8013
     8.2015   8.6704   9.1088   9.1088  10.7218  10.7219

          k = 0.2857 0.4286 0.4286 (  9540 PWs)   bands (ev):

   -47.8709 -47.8708 -47.8708 -47.8708 -19.8092 -19.8087 -19.8087 -19.8076
   -19.7882 -19.7872 -19.7872 -19.7859 -19.7857 -19.7855 -19.7855 -19.7845
   -11.3273 -11.2901 -11.2901 -11.2723  -0.7499  -0.7232  -0.7232  -0.6533
     0.5039   0.5895   0.5895   0.7187   0.7298   0.7446   0.7446   0.8139
     8.3460   8.6610   8.6610   8.8066  11.0612  11.1510

          k = 0.4286 0.4286 0.4286 (  9511 PWs)   bands (ev):

   -47.8709 -47.8708 -47.8708 -47.8708 -19.8111 -19.8111 -19.8111 -19.8105
   -19.7857 -19.7857 -19.7857 -19.7853 -19.7853 -19.7853 -19.7849 -19.7849
   -11.3037 -11.2840 -11.2840 -11.2840  -0.8423  -0.8423  -0.8423  -0.8067
     0.7098   0.7098   0.7098   0.7572   0.7572   0.7572   0.7872   0.7872
     8.2722   8.4313   8.4313   8.4313  11.4577  11.4577

     the Fermi energy is     4.5518 ev

!    total energy              =    -755.40528819 Ry
     total all-electron energy =     -4992.553258 Ry
     estimated scf accuracy    <          1.3E-10 Ry
     smearing contrib. (-TS)   =       0.00000000 Ry
     internal energy E=F+TS    =    -755.40528819 Ry

     The total energy is F=E-TS. E is the sum of the following terms:
     one-electron contribution =    -324.05465424 Ry
     hartree contribution      =     169.05073162 Ry
     xc contribution           =     -98.72187375 Ry
     ewald contribution        =    -275.19677203 Ry
     one-center paw contrib.   =    -226.48271980 Ry

     convergence has been achieved in  10 iterations

     Forces acting on atoms (cartesian axes, Ry/au):

     atom    1 type  1   force =     0.00000000    0.00000000    0.00000000
     atom    2 type  1   force =     0.00000000    0.00000000    0.00000000
     atom    3 type  1   force =     0.00000000    0.00000000    0.00000000
     atom    4 type  1   force =     0.00000000    0.00000000    0.00000000
     atom    5 type  2   force =     0.00000000    0.00000000    0.00000000
     atom    6 type  2   force =     0.00000000    0.00000000    0.00000000
     atom    7 type  2   force =     0.00000000    0.00000000    0.00000000
     atom    8 type  2   force =     0.00000000    0.00000000    0.00000000

     Total force =     0.000000     Total SCF correction =     0.000000


     Computing stress (Cartesian axis) and pressure

          total   stress  (Ry/bohr**3)                   (kbar)     P=        7.19
   0.00004891   0.00000000   0.00000000            7.19        0.00        0.00
   0.00000000   0.00004891   0.00000000            0.00        7.19        0.00
   0.00000000   0.00000000   0.00004891            0.00        0.00        7.19


     Writing all to output data dir ./NaCl_Full.save/ :
     XML data file, charge density, pseudopotentials, collected wavefunctions

     init_run     :     10.79s CPU     11.17s WALL (       1 calls)
     electrons    :    311.58s CPU    317.91s WALL (       1 calls)
     forces       :      4.64s CPU      4.80s WALL (       1 calls)
     stress       :     14.69s CPU     15.08s WALL (       1 calls)

     Called by init_run:
     wfcinit      :      9.13s CPU      9.27s WALL (       1 calls)
     potinit      :      0.62s CPU      0.70s WALL (       1 calls)
     hinit0       :      0.71s CPU      0.74s WALL (       1 calls)

     Called by electrons:
     c_bands      :    282.95s CPU    286.75s WALL (      10 calls)
     sum_band     :     21.98s CPU     23.32s WALL (      10 calls)
     v_of_rho     :      1.45s CPU      1.72s WALL (      11 calls)
     newd         :      2.35s CPU      3.43s WALL (      11 calls)
     PAW_pot      :      3.16s CPU      3.19s WALL (      11 calls)
     mix_rho      :      0.18s CPU      0.19s WALL (      10 calls)

     Called by c_bands:
     init_us_2    :      1.73s CPU      1.80s WALL (     460 calls)
     cegterg      :    280.11s CPU    283.75s WALL (     200 calls)

     Called by *egterg:
     cdiaghg      :      2.92s CPU      2.93s WALL (    1187 calls)
     h_psi        :    115.42s CPU    116.99s WALL (    1207 calls)
     s_psi        :     29.60s CPU     29.78s WALL (    1207 calls)
     g_psi        :      0.69s CPU      0.69s WALL (     987 calls)

     Called by h_psi:
     h_psi:calbec :     28.79s CPU     28.83s WALL (    1207 calls)
     vloc_psi     :     56.47s CPU     56.90s WALL (    1207 calls)
                                        0.00s GPU  (    1207 calls)
     add_vuspsi   :     29.46s CPU     29.50s WALL (    1207 calls)

     General routines
     calbec       :     53.70s CPU     53.78s WALL (    1747 calls)
     fft          :      0.98s CPU      0.99s WALL (     166 calls)
     ffts         :      0.18s CPU      0.18s WALL (      21 calls)
     fftw         :     54.27s CPU     54.58s WALL (   55322 calls)
     interpolate  :      0.22s CPU      0.22s WALL (      11 calls)

     Parallel routines

     PWSCF        :   5m41.83s CPU   5m49.30s WALL


   This run was terminated on:  20: 7:36  28Jul2026            

=------------------------------------------------------------------------------=
   JOB DONE.
=------------------------------------------------------------------------------=
