
     Program PWSCF v.7.5 starts on 10Jul2026 at  5: 7:26 

     This program is part of the open-source Quantum ESPRESSO suite
     for quantum simulation of materials; please cite
         "P. Giannozzi et al., J. Phys.:Condens. Matter 21 395502 (2009);
         "P. Giannozzi et al., J. Phys.:Condens. Matter 29 465901 (2017);
         "P. Giannozzi et al., J. Chem. Phys. 152 154105 (2020);
          URL http://www.quantum-espresso.org", 
     in publications or presentations arising from this work. More details at
     http://www.quantum-espresso.org/quote

     Parallel version (MPI), running on     1 processors

     MPI processes distributed on     1 nodes
     10001 MiB available memory on the printing compute node when the environment starts

     Reading input from espresso.pwi
Warning: card &CELL ignored
Warning: card &FCP ignored
Warning: card &RISM ignored

     Current dimensions of program PWSCF are:
     Max number of different atomic species (ntypx) = 10
     Max number of k-points (npk) =  40000
     Max angular momentum in pseudopotentials (lmaxx) =  4
     file Fe.pbe-spn-kjpaw_psl.0.2.1.UPF: wavefunction(s)  3D renormalized
     file Al.pbe-n-kjpaw_psl.0.1.UPF: wavefunction(s)  3S renormalized
     Message from routine setup:
     using ibrav=0 with symmetry is DISCOURAGED, use correct ibrav instead

     Subspace diagonalization in iterative solution of the eigenvalue problem:
     a serial algorithm will be used


     G-vector sticks info
     --------------------
     sticks:   dense  smooth     PW     G-vecs:    dense   smooth      PW
     Sum        2141     863    265               103129    26207    4361

     Using Slab Decomposition



     bravais-lattice index     =            0
     lattice parameter (alat)  =       4.9376  a.u.
     unit-cell volume          =     330.2631 (a.u.)^3
     number of atoms/cell      =            4
     number of atomic types    =            2
     number of electrons       =        38.00
     number of Kohn-Sham states=           23
     kinetic-energy cutoff     =      70.0000  Ry
     charge density cutoff     =     700.0000  Ry
     scf convergence threshold =      1.0E-08
     mixing beta               =       0.7000
     number of iterations used =            8  plain     mixing
     Exchange-correlation= SLA  PW   PBX  PBC
                           (   1   4   3   4   0   0   0)

     celldm(1)=   4.937596  celldm(2)=   0.000000  celldm(3)=   0.000000
     celldm(4)=   0.000000  celldm(5)=   0.000000  celldm(6)=   0.000000

     crystal axes: (cart. coord. in units of alat)
               a(1) = (   1.000000   0.000000   0.000000 )  
               a(2) = (   0.000000   1.583992   0.000000 )  
               a(3) = (   0.000000   0.000000   1.732050 )  

     reciprocal axes: (cart. coord. in units 2 pi/alat)
               b(1) = (  1.000000  0.000000  0.000000 )  
               b(2) = (  0.000000  0.631316  0.000000 )  
               b(3) = (  0.000000  0.000000  0.577351 )  


     PseudoPot. # 1 for Fe read from file:
     /home/yluo/ASE/volume_optimization/CMP_pseudos/Fe.pbe-spn-kjpaw_psl.0.2.1.UPF
     MD5 check sum: 4338034a7fd945be4bb7db5fd3b2d142
     Pseudo is Projector augmented-wave + core cor, Zval = 16.0
     Generated using "atomic" code by A. Dal Corso  v.5.0.2 svn rev. 9415
     Shape of augmentation charge: PSQ
     Using radial grid of 1191 points,  6 beta functions with: 
                l(1) =   0
                l(2) =   0
                l(3) =   1
                l(4) =   1
                l(5) =   2
                l(6) =   2
     Q(r) pseudized with 0 coefficients 


     PseudoPot. # 2 for Al read from file:
     /home/yluo/ASE/volume_optimization/CMP_pseudos/Al.pbe-n-kjpaw_psl.0.1.UPF
     MD5 check sum: 9111391c6252b599ac5002cf021b5091
     Pseudo is Projector augmented-wave + core cor, Zval =  3.0
     Generated using "atomic" code by A. Dal Corso  v.5.0.2 svn rev. 9415
     Shape of augmentation charge: PSQ
     Using radial grid of 1135 points,  4 beta functions with: 
                l(1) =   0
                l(2) =   0
                l(3) =   1
                l(4) =   1
     Q(r) pseudized with 0 coefficients 


     atomic species   valence    mass     pseudopotential
     Fe               16.00    55.84500     Fe( 1.00)
     Al                3.00    26.98154     Al( 1.00)

      8 Sym. Ops., with inversion, found ( 6 have fractional translation)



   Cartesian axes

     site n.     atom                  positions (alat units)
         1        Fe     tau(   1) = (   0.7500000   1.1879937   1.5877123  )
         2        Fe     tau(   2) = (   0.2500000   0.3959979   0.1443375  )
         3        Al     tau(   3) = (   0.2500000   1.1879937   0.7216874  )
         4        Al     tau(   4) = (   0.7500000   0.3959979   1.0103624  )

     number of k points=    36  Marzari-Vanderbilt smearing, width (Ry)=  0.0050
                       cart. coord. in units 2pi/alat
        k(    1) = (   0.0000000   0.0000000   0.0000000), wk =   0.0208333
        k(    2) = (   0.0000000   0.0000000   0.1443377), wk =   0.0416667
        k(    3) = (   0.0000000   0.0000000  -0.2886753), wk =   0.0208333
        k(    4) = (   0.0000000   0.1578291   0.0000000), wk =   0.0416667
        k(    5) = (   0.0000000   0.1578291   0.1443377), wk =   0.0833333
        k(    6) = (   0.0000000   0.1578291  -0.2886753), wk =   0.0416667
        k(    7) = (   0.0000000  -0.3156582   0.0000000), wk =   0.0208333
        k(    8) = (   0.0000000  -0.3156582   0.1443377), wk =   0.0416667
        k(    9) = (   0.0000000  -0.3156582  -0.2886753), wk =   0.0208333
        k(   10) = (   0.1666667   0.0000000   0.0000000), wk =   0.0416667
        k(   11) = (   0.1666667   0.0000000   0.1443377), wk =   0.0833333
        k(   12) = (   0.1666667   0.0000000  -0.2886753), wk =   0.0416667
        k(   13) = (   0.1666667   0.1578291   0.0000000), wk =   0.0833333
        k(   14) = (   0.1666667   0.1578291   0.1443377), wk =   0.1666667
        k(   15) = (   0.1666667   0.1578291  -0.2886753), wk =   0.0833333
        k(   16) = (   0.1666667  -0.3156582   0.0000000), wk =   0.0416667
        k(   17) = (   0.1666667  -0.3156582   0.1443377), wk =   0.0833333
        k(   18) = (   0.1666667  -0.3156582  -0.2886753), wk =   0.0416667
        k(   19) = (   0.3333333   0.0000000   0.0000000), wk =   0.0416667
        k(   20) = (   0.3333333   0.0000000   0.1443377), wk =   0.0833333
        k(   21) = (   0.3333333   0.0000000  -0.2886753), wk =   0.0416667
        k(   22) = (   0.3333333   0.1578291   0.0000000), wk =   0.0833333
        k(   23) = (   0.3333333   0.1578291   0.1443377), wk =   0.1666667
        k(   24) = (   0.3333333   0.1578291  -0.2886753), wk =   0.0833333
        k(   25) = (   0.3333333  -0.3156582   0.0000000), wk =   0.0416667
        k(   26) = (   0.3333333  -0.3156582   0.1443377), wk =   0.0833333
        k(   27) = (   0.3333333  -0.3156582  -0.2886753), wk =   0.0416667
        k(   28) = (  -0.5000000   0.0000000   0.0000000), wk =   0.0208333
        k(   29) = (  -0.5000000   0.0000000   0.1443377), wk =   0.0416667
        k(   30) = (  -0.5000000   0.0000000  -0.2886753), wk =   0.0208333
        k(   31) = (  -0.5000000   0.1578291   0.0000000), wk =   0.0416667
        k(   32) = (  -0.5000000   0.1578291   0.1443377), wk =   0.0833333
        k(   33) = (  -0.5000000   0.1578291  -0.2886753), wk =   0.0416667
        k(   34) = (  -0.5000000  -0.3156582   0.0000000), wk =   0.0208333
        k(   35) = (  -0.5000000  -0.3156582   0.1443377), wk =   0.0416667
        k(   36) = (  -0.5000000  -0.3156582  -0.2886753), wk =   0.0208333

     Dense  grid:   103129 G-vectors     FFT dimensions: (  48,  72,  75)

     Smooth grid:    26207 G-vectors     FFT dimensions: (  30,  48,  45)

     Estimated max dynamical RAM per process >     428.78 MB

     Check: negative core charge=   -0.000013

     Initial potential from superposition of free atoms

     starting charge      37.9945, renormalised to      38.0000
     Starting wfcs are   34 randomized atomic wfcs
     Checking if some PAW data can be deallocated... 

     total cpu time spent up to now is        3.9 secs

     Self-consistent Calculation

     iteration #  1     ecut=    70.00 Ry     beta= 0.70
     Davidson diagonalization with overlap
     ethr =  1.00E-02,  avg # of iterations =  2.8

     Threshold (ethr) on eigenvalues was too large:
     Diagonalizing with lowered threshold

     Davidson diagonalization with overlap
     ethr =  4.63E-04,  avg # of iterations =  4.3

     total cpu time spent up to now is       14.7 secs

     total energy              =    -737.45668752 Ry
     estimated scf accuracy    <       0.16218089 Ry

     iteration #  2     ecut=    70.00 Ry     beta= 0.70
     Davidson diagonalization with overlap
     ethr =  4.27E-04,  avg # of iterations =  4.8

     total cpu time spent up to now is       22.7 secs

     total energy              =    -737.28738281 Ry
     estimated scf accuracy    <       2.12798093 Ry

     iteration #  3     ecut=    70.00 Ry     beta= 0.70
     Davidson diagonalization with overlap
     ethr =  4.27E-04,  avg # of iterations =  4.6

     total cpu time spent up to now is       30.9 secs

     total energy              =    -737.53331423 Ry
     estimated scf accuracy    <       0.06031162 Ry

     iteration #  4     ecut=    70.00 Ry     beta= 0.70
     Davidson diagonalization with overlap
     ethr =  1.59E-04,  avg # of iterations =  2.0

     total cpu time spent up to now is       36.3 secs

     total energy              =    -737.54140609 Ry
     estimated scf accuracy    <       0.00072857 Ry

     iteration #  5     ecut=    70.00 Ry     beta= 0.70
     Davidson diagonalization with overlap
     ethr =  1.92E-06,  avg # of iterations =  6.7

     total cpu time spent up to now is       45.3 secs

     total energy              =    -737.54208870 Ry
     estimated scf accuracy    <       0.00019244 Ry

     iteration #  6     ecut=    70.00 Ry     beta= 0.70
     Davidson diagonalization with overlap
     ethr =  5.06E-07,  avg # of iterations =  3.1

     total cpu time spent up to now is       50.6 secs

     total energy              =    -737.54212543 Ry
     estimated scf accuracy    <       0.00000284 Ry

     iteration #  7     ecut=    70.00 Ry     beta= 0.70
     Davidson diagonalization with overlap
     ethr =  7.48E-09,  avg # of iterations =  8.9

     total cpu time spent up to now is       66.2 secs

     total energy              =    -737.54213468 Ry
     estimated scf accuracy    <       0.00000245 Ry

     iteration #  8     ecut=    70.00 Ry     beta= 0.70
     Davidson diagonalization with overlap
     ethr =  6.46E-09,  avg # of iterations =  2.0

     total cpu time spent up to now is       71.9 secs

     total energy              =    -737.54213500 Ry
     estimated scf accuracy    <       0.00000003 Ry

     iteration #  9     ecut=    70.00 Ry     beta= 0.70
     Davidson diagonalization with overlap
     ethr =  8.58E-11,  avg # of iterations =  7.2

     total cpu time spent up to now is       83.4 secs

     total energy              =    -737.54213504 Ry
     estimated scf accuracy    <       0.00000005 Ry

     iteration # 10     ecut=    70.00 Ry     beta= 0.70
     Davidson diagonalization with overlap
     ethr =  8.58E-11,  avg # of iterations =  2.1

     total cpu time spent up to now is       89.8 secs

     End of self-consistent calculation

          k = 0.0000 0.0000 0.0000 (  3287 PWs)   bands (ev):

   -72.9636 -72.9219 -39.2334 -38.9973 -38.9944 -38.9235 -38.8852 -38.8827
     2.7597   9.0964   9.7694  10.4180  10.4718  11.5777  11.8922  12.7278
    12.7379  13.0164  13.5582  13.7296  14.5562  14.5664  15.9612

          k = 0.0000 0.0000 0.1443 (  3285 PWs)   bands (ev):

   -72.9636 -72.9219 -39.2333 -38.9971 -38.9944 -38.9234 -38.8854 -38.8830
     3.1396   7.4617   9.8880   9.9394  11.3101  11.9161  12.6422  12.6563
    12.7437  13.0453  13.5227  13.7427  14.5287  14.5620  16.9194

          k = 0.0000 0.0000-0.2887 (  3278 PWs)   bands (ev):

   -72.9636 -72.9219 -39.2332 -38.9971 -38.9947 -38.9233 -38.8854 -38.8830
     3.7282   6.1602   9.5949  10.2356  11.8755  11.9232  12.3293  12.7496
    12.9760  13.4914  13.7520  13.8618  14.5282  14.5575  15.0033

          k = 0.0000 0.1578 0.0000 (  3273 PWs)   bands (ev):

   -72.9575 -72.9280 -39.2032 -39.0402 -38.9840 -38.9338 -38.8806 -38.8746
     3.3022   7.2517  10.1027  10.1525  10.9530  11.4398  12.5647  12.8582
    12.9732  13.0195  13.5725  13.7005  14.3892  14.4167  17.5929

          k = 0.0000 0.1578 0.1443 (  3280 PWs)   bands (ev):

   -72.9575 -72.9280 -39.2030 -39.0406 -38.9840 -38.9339 -38.8810 -38.8748
     3.6671   7.4199   8.1406  10.3853  11.4170  11.5884  12.5091  12.7278
    12.8553  13.3610  13.5701  13.6826  14.3974  14.5559  17.3756

          k = 0.0000 0.1578-0.2887 (  3262 PWs)   bands (ev):

   -72.9575 -72.9280 -39.2029 -39.0406 -38.9839 -38.9336 -38.8809 -38.8746
     4.2189   6.7160   7.8976   9.9523  11.6855  11.7740  12.4394  12.4946
    12.8522  13.5676  13.6659  13.8263  13.9365  14.4051  17.3593

          k = 0.0000-0.3157 0.0000 (  3280 PWs)   bands (ev):

   -72.9428 -72.9428 -39.1267 -39.1267 -38.9589 -38.9589 -38.8732 -38.8732
     4.8734   4.8734  10.3648  10.3648  11.3795  11.3795  12.4919  12.4919
    13.1943  13.1943  13.8905  13.8905  14.0319  14.0319  16.6495

          k = 0.0000-0.3157 0.1443 (  3258 PWs)   bands (ev):

   -72.9427 -72.9427 -39.1264 -39.1264 -38.9589 -38.9589 -38.8730 -38.8730
     5.1940   5.1940   9.3272   9.3272  11.5393  11.5393  12.2378  12.2378
    13.1817  13.1817  14.0058  14.0058  14.0397  14.0397  18.3400

          k = 0.0000-0.3157-0.2887 (  3284 PWs)   bands (ev):

   -72.9428 -72.9428 -39.1268 -39.1268 -38.9591 -38.9591 -38.8734 -38.8734
     5.6487   5.6487   8.3494   8.3494  11.6094  11.6094  12.1112  12.1112
    13.1693  13.1693  14.0473  14.0473  14.0732  14.0732  20.6298

          k = 0.1667 0.0000 0.0000 (  3277 PWs)   bands (ev):

   -72.9568 -72.9206 -39.2138 -39.0305 -39.0094 -38.9702 -38.8793 -38.8758
     3.3660   9.3910  10.1666  10.7811  10.9229  11.5711  11.8547  12.5775
    12.7344  12.7375  13.5768  13.9834  14.7848  14.8471  16.0193

          k = 0.1667 0.0000 0.1443 (  3276 PWs)   bands (ev):

   -72.9568 -72.9206 -39.2137 -39.0306 -39.0093 -38.9702 -38.8794 -38.8760
     3.7290   7.9837  10.2303  10.3679  11.5007  11.8821  12.3132  12.5806
    12.6823  12.9625  13.5034  13.5985  14.8437  14.9014  17.3043

          k = 0.1667 0.0000-0.2887 (  3270 PWs)   bands (ev):

   -72.9568 -72.9206 -39.2137 -39.0305 -39.0091 -38.9703 -38.8796 -38.8760
     4.2773   6.7849   9.9453  10.6003  11.8466  12.0513  12.4890  12.5970
    12.6155  13.3627  13.5511  13.6476  13.9839  15.1757  16.4267

          k = 0.1667 0.1578 0.0000 (  3270 PWs)   bands (ev):

   -72.9515 -72.9259 -39.1921 -39.0583 -39.0163 -38.9637 -38.8760 -38.8728
     3.8988   7.7699  10.3453  10.5387  11.2398  11.4281  12.4808  12.4992
    12.7732  13.0120  13.7089  13.8002  14.7288  14.8456  17.4995

          k = 0.1667 0.1578 0.1443 (  3273 PWs)   bands (ev):

   -72.9515 -72.9259 -39.1922 -39.0583 -39.0163 -38.9637 -38.8761 -38.8729
     4.2475   7.9034   8.6904  10.7819  11.4830  11.6739  12.2898  12.4669
    12.7306  13.2531  13.5679  13.7595  14.1916  15.3281  17.6295

          k = 0.1667 0.1578-0.2887 (  3280 PWs)   bands (ev):

   -72.9515 -72.9259 -39.1922 -39.0584 -39.0163 -38.9639 -38.8764 -38.8731
     4.7628   7.3046   8.3928  10.4478  11.8964  11.9059  11.9565  12.4636
    12.6543  13.3057  13.3670  13.8221  14.0566  14.9915  17.4903

          k = 0.1667-0.3157 0.0000 (  3256 PWs)   bands (ev):

   -72.9387 -72.9387 -39.1335 -39.1335 -38.9848 -38.9848 -38.8712 -38.8712
     5.4427   5.4427  10.7223  10.7223  11.5957  11.5957  12.0496  12.0496
    13.1056  13.1056  13.7601  13.7601  14.8487  14.8487  16.8204

          k = 0.1667-0.3157 0.1443 (  3264 PWs)   bands (ev):

   -72.9387 -72.9387 -39.1336 -39.1336 -38.9849 -38.9849 -38.8712 -38.8712
     5.7476   5.7476   9.8004   9.8004  11.7437  11.7437  12.0293  12.0293
    13.0297  13.0297  13.8751  13.8751  14.2405  14.2405  18.8453

          k = 0.1667-0.3157-0.2887 (  3268 PWs)   bands (ev):

   -72.9387 -72.9387 -39.1336 -39.1336 -38.9850 -38.9850 -38.8714 -38.8714
     6.1710   6.1710   8.9134   8.9134  11.8158  11.8158  12.0122  12.0122
    12.9509  12.9509  13.8244  13.8244  14.1664  14.1664  20.3121

          k = 0.3333 0.0000 0.0000 (  3267 PWs)   bands (ev):

   -72.9411 -72.9202 -39.1631 -39.0972 -39.0623 -39.0449 -38.8692 -38.8670
     5.1276   9.9289  10.6097  10.7548  11.3323  11.4004  12.1270  12.3944
    12.9103  12.9197  14.1401  14.6559  15.2817  15.4102  15.4203

          k = 0.3333 0.0000 0.1443 (  3273 PWs)   bands (ev):

   -72.9411 -72.9202 -39.1631 -39.0972 -39.0626 -39.0448 -38.8693 -38.8672
     5.4382   9.2731  10.6706  10.9056  11.0734  11.6123  11.9600  12.4946
    12.7834  13.2003  13.5691  14.1588  14.5784  15.5397  17.1136

          k = 0.3333 0.0000-0.2887 (  3258 PWs)   bands (ev):

   -72.9411 -72.9202 -39.1630 -39.0972 -39.0626 -39.0447 -38.8691 -38.8669
     5.8732   8.4881  10.6998  10.8760  11.1295  11.6375  12.3164  12.3279
    12.5454  13.3946  13.5024  13.9084  14.1926  15.7473  17.9875

          k = 0.3333 0.1578 0.0000 (  3269 PWs)   bands (ev):

   -72.9381 -72.9233 -39.1777 -39.1192 -39.0603 -39.0096 -38.8686 -38.8685
     5.6246   9.1018  10.5305  10.8585  11.2640  11.6654  12.0298  12.0767
    12.8232  13.1610  14.0746  14.2616  15.1897  15.5449  15.7958

          k = 0.3333 0.1578 0.1443 (  3258 PWs)   bands (ev):

   -72.9381 -72.9233 -39.1775 -39.1192 -39.0602 -39.0095 -38.8686 -38.8684
     5.9249   9.1617  10.0008  10.8814  11.2056  11.6129  12.0217  12.2867
    13.0008  13.0656  13.6020  14.0293  14.1717  15.2407  17.3672

          k = 0.3333 0.1578-0.2887 (  3266 PWs)   bands (ev):

   -72.9381 -72.9233 -39.1776 -39.1193 -39.0602 -39.0096 -38.8687 -38.8685
     6.3400   8.8086   9.7998  11.1403  11.1977  11.4425  12.1882  12.3009
    12.3163  13.0428  13.5490  13.8296  14.1141  16.0514  16.1352

          k = 0.3333-0.3157 0.0000 (  3278 PWs)   bands (ev):

   -72.9307 -72.9307 -39.1681 -39.1681 -39.0152 -39.0152 -38.8689 -38.8689
     7.0553   7.0553  11.0792  11.0792  11.4133  11.4133  12.1039  12.1039
    12.9247  12.9247  13.7400  13.7400  15.6486  15.6486  16.6382

          k = 0.3333-0.3157 0.1443 (  3262 PWs)   bands (ev):

   -72.9307 -72.9307 -39.1680 -39.1680 -39.0151 -39.0151 -38.8688 -38.8688
     7.3201   7.3201  10.5576  10.5576  11.6528  11.6528  12.1599  12.1599
    12.9074  12.9074  13.5673  13.5673  14.5189  14.5189  17.0263

          k = 0.3333-0.3157-0.2887 (  3256 PWs)   bands (ev):

   -72.9307 -72.9307 -39.1679 -39.1679 -39.0152 -39.0152 -38.8686 -38.8686
     7.6639   7.6639  10.1501  10.1501  11.6014  11.6014  12.3294  12.3294
    12.4203  12.4203  13.6492  13.6492  14.3739  14.3739  16.9482

          k =-0.5000 0.0000 0.0000 (  3302 PWs)   bands (ev):

   -72.9267 -72.9267 -39.1193 -39.1193 -39.1004 -39.1004 -38.8642 -38.8642
     7.8367   7.8367  10.4200  10.4200  11.2693  11.2693  12.8675  12.8675
    12.9738  12.9738  14.6853  14.6853  16.4174  16.4174  16.9705

          k =-0.5000 0.0000 0.1443 (  3254 PWs)   bands (ev):

   -72.9266 -72.9266 -39.1188 -39.1188 -39.1002 -39.1002 -38.8636 -38.8636
     8.0519   8.0519  10.4562  10.4562  11.2058  11.2058  12.6841  12.6841
    13.0488  13.0488  14.0104  14.0104  15.6396  15.6396  17.0796

          k =-0.5000 0.0000-0.2887 (  3244 PWs)   bands (ev):

   -72.9266 -72.9266 -39.1186 -39.1186 -39.1002 -39.1002 -38.8635 -38.8635
     8.2998   8.2998  10.6032  10.6032  11.1473  11.1473  12.0720  12.0720
    13.1182  13.1182  13.6281  13.6281  15.5993  15.5993  17.2023

          k =-0.5000 0.1578 0.0000 (  3270 PWs)   bands (ev):

   -72.9266 -72.9266 -39.1703 -39.1703 -39.0468 -39.0468 -38.8658 -38.8658
     8.2015   8.2015  10.6360  10.6360  11.2508  11.2508  12.2391  12.2391
    12.6320  12.6320  14.6875  14.6875  15.2562  15.2562  17.1692

          k =-0.5000 0.1578 0.1443 (  3250 PWs)   bands (ev):

   -72.9266 -72.9266 -39.1702 -39.1702 -39.0467 -39.0467 -38.8655 -38.8655
     8.4439   8.4439  10.3451  10.3451  11.6051  11.6051  12.0602  12.0602
    13.0047  13.0047  13.7777  13.7777  14.9878  14.9878  16.8387

          k =-0.5000 0.1578-0.2887 (  3240 PWs)   bands (ev):

   -72.9266 -72.9266 -39.1700 -39.1700 -39.0467 -39.0467 -38.8654 -38.8654
     8.7173   8.7173  10.3156  10.3156  11.6499  11.6499  11.9103  11.9103
    12.7936  12.7936  13.5192  13.5192  15.2893  15.2893  16.1179

          k =-0.5000-0.3157 0.0000 (  3252 PWs)   bands (ev):

   -72.9266 -72.9266 -39.1945 -39.1945 -39.0201 -39.0201 -38.8678 -38.8678
     8.7806   8.7806  10.6351  10.6351  11.0523  11.0523  11.5752  11.5752
    12.8386  12.8386  14.0082  14.0082  14.9855  14.9855  17.9008

          k =-0.5000-0.3157 0.1443 (  3256 PWs)   bands (ev):

   -72.9266 -72.9266 -39.1945 -39.1945 -39.0202 -39.0202 -38.8677 -38.8677
     9.1794   9.1794   9.9246   9.9246  11.4167  11.4167  12.1434  12.1434
    12.9223  12.9223  13.3611  13.3611  14.6133  14.6133  17.2708

          k =-0.5000-0.3157-0.2887 (  3280 PWs)   bands (ev):

   -72.9266 -72.9266 -39.1948 -39.1948 -39.0205 -39.0205 -38.8678 -38.8678
     9.6187   9.6187   9.9112   9.9112  10.8606  10.8606  12.5871  12.5871
    12.7044  12.7044  13.6156  13.6156  14.5192  14.5192  15.7059

     the Fermi energy is    13.7391 ev

!    total energy              =    -737.54213505 Ry
     total all-electron energy =     -6062.420770 Ry
     estimated scf accuracy    <          4.4E-10 Ry
     smearing contrib. (-TS)   =      -0.00007539 Ry
     internal energy E=F+TS    =    -737.54205965 Ry

     The total energy is F=E-TS. E is the sum of the following terms:
     one-electron contribution =    -363.02484035 Ry
     hartree contribution      =     201.92662299 Ry
     xc contribution           =     -75.74234003 Ry
     ewald contribution        =    -279.88170771 Ry
     one-center paw contrib.   =    -220.81979456 Ry

     convergence has been achieved in  10 iterations

     Forces acting on atoms (cartesian axes, Ry/au):

     atom    1 type  1   force =     0.00000000    0.00000000   -0.01521175
     atom    2 type  1   force =     0.00000000    0.00000000    0.01521175
     atom    3 type  2   force =     0.00000000    0.00000000   -0.02531458
     atom    4 type  2   force =     0.00000000    0.00000000    0.02531458

     Total force =     0.041767     Total SCF correction =     0.000004


     Computing stress (Cartesian axis) and pressure

          total   stress  (Ry/bohr**3)                   (kbar)     P=      -15.40
   0.00060353   0.00000000   0.00000000           88.78        0.00        0.00
   0.00000000   0.00020434   0.00000000            0.00       30.06        0.00
   0.00000000   0.00000000  -0.00112199            0.00        0.00     -165.05


     Writing all to output data dir ./FeAl.save/ :
     XML data file, charge density, pseudopotentials, collected wavefunctions

     init_run     :      3.60s CPU      3.83s WALL (       1 calls)
     electrons    :     81.49s CPU     85.83s WALL (       1 calls)
     forces       :      1.74s CPU      2.03s WALL (       1 calls)
     stress       :      6.06s CPU      7.39s WALL (       1 calls)

     Called by init_run:
     wfcinit      :      2.09s CPU      2.05s WALL (       1 calls)
     potinit      :      0.57s CPU      0.60s WALL (       1 calls)
     hinit0       :      0.64s CPU      0.65s WALL (       1 calls)

     Called by electrons:
     c_bands      :     66.85s CPU     66.17s WALL (      11 calls)
     sum_band     :      8.36s CPU     12.04s WALL (      11 calls)
     v_of_rho     :      0.75s CPU      0.78s WALL (      11 calls)
     newd         :      2.89s CPU      4.49s WALL (      11 calls)
     PAW_pot      :      3.13s CPU      3.08s WALL (      11 calls)
     mix_rho      :      0.08s CPU      0.09s WALL (      11 calls)

     Called by c_bands:
     init_us_2    :      0.73s CPU      0.71s WALL (     900 calls)
     cegterg      :     65.26s CPU     64.60s WALL (     396 calls)

     Called by *egterg:
     cdiaghg      :      1.18s CPU      1.15s WALL (    2105 calls)
     h_psi        :     33.07s CPU     33.37s WALL (    2177 calls)
     s_psi        :      6.88s CPU      6.68s WALL (    2177 calls)
     g_psi        :      0.20s CPU      0.19s WALL (    1745 calls)

     Called by h_psi:
     h_psi:calbec :      6.95s CPU      6.77s WALL (    2177 calls)
     vloc_psi     :     19.00s CPU     19.65s WALL (    2177 calls)
                                        0.00s GPU  (    2177 calls)
     add_vuspsi   :      6.95s CPU      6.79s WALL (    2177 calls)

     General routines
     calbec       :     12.72s CPU     12.43s WALL (    3185 calls)
     fft          :      0.65s CPU      0.65s WALL (     167 calls)
     ffts         :      0.16s CPU      0.16s WALL (      22 calls)
     fftw         :     18.49s CPU     20.23s WALL (   71082 calls)
     interpolate  :      0.18s CPU      0.18s WALL (      11 calls)

     Parallel routines

     PWSCF        :   1m33.00s CPU   1m39.28s WALL


   This run was terminated on:   5: 9: 5  10Jul2026            

=------------------------------------------------------------------------------=
   JOB DONE.
=------------------------------------------------------------------------------=
