
     Program PWSCF v.7.5 starts on 10Jul2026 at  5:12:49 

     This program is part of the open-source Quantum ESPRESSO suite
     for quantum simulation of materials; please cite
         "P. Giannozzi et al., J. Phys.:Condens. Matter 21 395502 (2009);
         "P. Giannozzi et al., J. Phys.:Condens. Matter 29 465901 (2017);
         "P. Giannozzi et al., J. Chem. Phys. 152 154105 (2020);
          URL http://www.quantum-espresso.org", 
     in publications or presentations arising from this work. More details at
     http://www.quantum-espresso.org/quote

     Parallel version (MPI), running on     1 processors

     MPI processes distributed on     1 nodes
     9337 MiB available memory on the printing compute node when the environment starts

     Reading input from espresso.pwi
Warning: card &CELL ignored
Warning: card &FCP ignored
Warning: card &RISM ignored

     Current dimensions of program PWSCF are:
     Max number of different atomic species (ntypx) = 10
     Max number of k-points (npk) =  40000
     Max angular momentum in pseudopotentials (lmaxx) =  4
     file Fe.pbe-spn-kjpaw_psl.0.2.1.UPF: wavefunction(s)  3D renormalized
     file Al.pbe-n-kjpaw_psl.0.1.UPF: wavefunction(s)  3S renormalized
     Message from routine setup:
     using ibrav=0 with symmetry is DISCOURAGED, use correct ibrav instead

     Subspace diagonalization in iterative solution of the eigenvalue problem:
     a serial algorithm will be used


     G-vector sticks info
     --------------------
     sticks:   dense  smooth     PW     G-vecs:    dense   smooth      PW
     Sum        2175     869    265               103217    26089    4361

     Using Slab Decomposition



     bravais-lattice index     =            0
     lattice parameter (alat)  =       4.8877  a.u.
     unit-cell volume          =     330.2631 (a.u.)^3
     number of atoms/cell      =            4
     number of atomic types    =            2
     number of electrons       =        38.00
     number of Kohn-Sham states=           23
     kinetic-energy cutoff     =      70.0000  Ry
     charge density cutoff     =     700.0000  Ry
     scf convergence threshold =      1.0E-08
     mixing beta               =       0.7000
     number of iterations used =            8  plain     mixing
     Exchange-correlation= SLA  PW   PBX  PBC
                           (   1   4   3   4   0   0   0)

     celldm(1)=   4.887718  celldm(2)=   0.000000  celldm(3)=   0.000000
     celldm(4)=   0.000000  celldm(5)=   0.000000  celldm(6)=   0.000000

     crystal axes: (cart. coord. in units of alat)
               a(1) = (   1.000000   0.000000   0.000000 )  
               a(2) = (   0.000000   1.632981   0.000000 )  
               a(3) = (   0.000000   0.000000   1.732050 )  

     reciprocal axes: (cart. coord. in units 2 pi/alat)
               b(1) = (  1.000000  0.000000  0.000000 )  
               b(2) = (  0.000000  0.612377  0.000000 )  
               b(3) = (  0.000000  0.000000  0.577351 )  


     PseudoPot. # 1 for Fe read from file:
     /home/yluo/ASE/volume_optimization/CMP_pseudos/Fe.pbe-spn-kjpaw_psl.0.2.1.UPF
     MD5 check sum: 4338034a7fd945be4bb7db5fd3b2d142
     Pseudo is Projector augmented-wave + core cor, Zval = 16.0
     Generated using "atomic" code by A. Dal Corso  v.5.0.2 svn rev. 9415
     Shape of augmentation charge: PSQ
     Using radial grid of 1191 points,  6 beta functions with: 
                l(1) =   0
                l(2) =   0
                l(3) =   1
                l(4) =   1
                l(5) =   2
                l(6) =   2
     Q(r) pseudized with 0 coefficients 


     PseudoPot. # 2 for Al read from file:
     /home/yluo/ASE/volume_optimization/CMP_pseudos/Al.pbe-n-kjpaw_psl.0.1.UPF
     MD5 check sum: 9111391c6252b599ac5002cf021b5091
     Pseudo is Projector augmented-wave + core cor, Zval =  3.0
     Generated using "atomic" code by A. Dal Corso  v.5.0.2 svn rev. 9415
     Shape of augmentation charge: PSQ
     Using radial grid of 1135 points,  4 beta functions with: 
                l(1) =   0
                l(2) =   0
                l(3) =   1
                l(4) =   1
     Q(r) pseudized with 0 coefficients 


     atomic species   valence    mass     pseudopotential
     Fe               16.00    55.84500     Fe( 1.00)
     Al                3.00    26.98154     Al( 1.00)

      8 Sym. Ops., with inversion, found ( 6 have fractional translation)



   Cartesian axes

     site n.     atom                  positions (alat units)
         1        Fe     tau(   1) = (   0.7500000   1.2247358   1.5877123  )
         2        Fe     tau(   2) = (   0.2500000   0.4082453   0.1443375  )
         3        Al     tau(   3) = (   0.2500000   1.2247358   0.7216874  )
         4        Al     tau(   4) = (   0.7500000   0.4082453   1.0103624  )

     number of k points=    36  Marzari-Vanderbilt smearing, width (Ry)=  0.0050
                       cart. coord. in units 2pi/alat
        k(    1) = (   0.0000000   0.0000000   0.0000000), wk =   0.0208333
        k(    2) = (   0.0000000   0.0000000   0.1443377), wk =   0.0416667
        k(    3) = (   0.0000000   0.0000000  -0.2886753), wk =   0.0208333
        k(    4) = (   0.0000000   0.1530942   0.0000000), wk =   0.0416667
        k(    5) = (   0.0000000   0.1530942   0.1443377), wk =   0.0833333
        k(    6) = (   0.0000000   0.1530942  -0.2886753), wk =   0.0416667
        k(    7) = (   0.0000000  -0.3061885   0.0000000), wk =   0.0208333
        k(    8) = (   0.0000000  -0.3061885   0.1443377), wk =   0.0416667
        k(    9) = (   0.0000000  -0.3061885  -0.2886753), wk =   0.0208333
        k(   10) = (   0.1666667   0.0000000   0.0000000), wk =   0.0416667
        k(   11) = (   0.1666667   0.0000000   0.1443377), wk =   0.0833333
        k(   12) = (   0.1666667   0.0000000  -0.2886753), wk =   0.0416667
        k(   13) = (   0.1666667   0.1530942   0.0000000), wk =   0.0833333
        k(   14) = (   0.1666667   0.1530942   0.1443377), wk =   0.1666667
        k(   15) = (   0.1666667   0.1530942  -0.2886753), wk =   0.0833333
        k(   16) = (   0.1666667  -0.3061885   0.0000000), wk =   0.0416667
        k(   17) = (   0.1666667  -0.3061885   0.1443377), wk =   0.0833333
        k(   18) = (   0.1666667  -0.3061885  -0.2886753), wk =   0.0416667
        k(   19) = (   0.3333333   0.0000000   0.0000000), wk =   0.0416667
        k(   20) = (   0.3333333   0.0000000   0.1443377), wk =   0.0833333
        k(   21) = (   0.3333333   0.0000000  -0.2886753), wk =   0.0416667
        k(   22) = (   0.3333333   0.1530942   0.0000000), wk =   0.0833333
        k(   23) = (   0.3333333   0.1530942   0.1443377), wk =   0.1666667
        k(   24) = (   0.3333333   0.1530942  -0.2886753), wk =   0.0833333
        k(   25) = (   0.3333333  -0.3061885   0.0000000), wk =   0.0416667
        k(   26) = (   0.3333333  -0.3061885   0.1443377), wk =   0.0833333
        k(   27) = (   0.3333333  -0.3061885  -0.2886753), wk =   0.0416667
        k(   28) = (  -0.5000000   0.0000000   0.0000000), wk =   0.0208333
        k(   29) = (  -0.5000000   0.0000000   0.1443377), wk =   0.0416667
        k(   30) = (  -0.5000000   0.0000000  -0.2886753), wk =   0.0208333
        k(   31) = (  -0.5000000   0.1530942   0.0000000), wk =   0.0416667
        k(   32) = (  -0.5000000   0.1530942   0.1443377), wk =   0.0833333
        k(   33) = (  -0.5000000   0.1530942  -0.2886753), wk =   0.0416667
        k(   34) = (  -0.5000000  -0.3061885   0.0000000), wk =   0.0208333
        k(   35) = (  -0.5000000  -0.3061885   0.1443377), wk =   0.0416667
        k(   36) = (  -0.5000000  -0.3061885  -0.2886753), wk =   0.0208333

     Dense  grid:   103217 G-vectors     FFT dimensions: (  48,  72,  72)

     Smooth grid:    26089 G-vectors     FFT dimensions: (  30,  48,  45)

     Estimated max dynamical RAM per process >     428.38 MB

     Check: negative core charge=   -0.000013

     Initial potential from superposition of free atoms

     starting charge      37.9945, renormalised to      38.0000
     Starting wfcs are   34 randomized atomic wfcs
     Checking if some PAW data can be deallocated... 

     total cpu time spent up to now is        4.3 secs

     Self-consistent Calculation

     iteration #  1     ecut=    70.00 Ry     beta= 0.70
     Davidson diagonalization with overlap
     ethr =  1.00E-02,  avg # of iterations =  2.8

     Threshold (ethr) on eigenvalues was too large:
     Diagonalizing with lowered threshold

     Davidson diagonalization with overlap
     ethr =  4.80E-04,  avg # of iterations =  4.5

     total cpu time spent up to now is       16.8 secs

     total energy              =    -737.45407080 Ry
     estimated scf accuracy    <       0.16803204 Ry

     iteration #  2     ecut=    70.00 Ry     beta= 0.70
     Davidson diagonalization with overlap
     ethr =  4.42E-04,  avg # of iterations =  4.6

     total cpu time spent up to now is       25.2 secs

     total energy              =    -737.28156094 Ry
     estimated scf accuracy    <       2.23716726 Ry

     iteration #  3     ecut=    70.00 Ry     beta= 0.70
     Davidson diagonalization with overlap
     ethr =  4.42E-04,  avg # of iterations =  4.4

     total cpu time spent up to now is       32.4 secs

     total energy              =    -737.53556070 Ry
     estimated scf accuracy    <       0.05356327 Ry

     iteration #  4     ecut=    70.00 Ry     beta= 0.70
     Davidson diagonalization with overlap
     ethr =  1.41E-04,  avg # of iterations =  2.0

     total cpu time spent up to now is       37.7 secs

     total energy              =    -737.54304956 Ry
     estimated scf accuracy    <       0.00060141 Ry

     iteration #  5     ecut=    70.00 Ry     beta= 0.70
     Davidson diagonalization with overlap
     ethr =  1.58E-06,  avg # of iterations =  7.1

     total cpu time spent up to now is       47.4 secs

     total energy              =    -737.54372186 Ry
     estimated scf accuracy    <       0.00014628 Ry

     iteration #  6     ecut=    70.00 Ry     beta= 0.70
     Davidson diagonalization with overlap
     ethr =  3.85E-07,  avg # of iterations =  3.0

     total cpu time spent up to now is       53.1 secs

     total energy              =    -737.54374925 Ry
     estimated scf accuracy    <       0.00000372 Ry

     iteration #  7     ecut=    70.00 Ry     beta= 0.70
     Davidson diagonalization with overlap
     ethr =  9.78E-09,  avg # of iterations =  7.1

     total cpu time spent up to now is       65.1 secs

     total energy              =    -737.54375560 Ry
     estimated scf accuracy    <       0.00000188 Ry

     iteration #  8     ecut=    70.00 Ry     beta= 0.70
     Davidson diagonalization with overlap
     ethr =  4.95E-09,  avg # of iterations =  1.8

     total cpu time spent up to now is       70.2 secs

     total energy              =    -737.54375587 Ry
     estimated scf accuracy    <       0.00000004 Ry

     iteration #  9     ecut=    70.00 Ry     beta= 0.70
     Davidson diagonalization with overlap
     ethr =  9.90E-11,  avg # of iterations =  7.4

     total cpu time spent up to now is       81.4 secs

     total energy              =    -737.54375594 Ry
     estimated scf accuracy    <       0.00000004 Ry

     iteration # 10     ecut=    70.00 Ry     beta= 0.70
     Davidson diagonalization with overlap
     ethr =  9.90E-11,  avg # of iterations =  2.0

     total cpu time spent up to now is       86.9 secs

     End of self-consistent calculation

          k = 0.0000 0.0000 0.0000 (  3263 PWs)   bands (ev):

   -72.9692 -72.9324 -39.2279 -39.0101 -39.0010 -38.9409 -38.8844 -38.8804
     2.7782   9.0235   9.8451  10.2179  10.4827  11.5499  11.8453  12.5992
    12.8400  12.9724  13.5859  13.7453  14.5207  14.5498  15.8838

          k = 0.0000 0.0000 0.1443 (  3283 PWs)   bands (ev):

   -72.9692 -72.9324 -39.2284 -39.0101 -39.0015 -38.9408 -38.8844 -38.8810
     3.1726   7.5137   9.7348   9.8522  11.2954  11.8799  12.5159  12.6038
    12.8460  12.9695  13.5534  13.7572  14.3558  14.5164  17.0146

          k = 0.0000 0.0000-0.2887 (  3282 PWs)   bands (ev):

   -72.9692 -72.9324 -39.2285 -39.0102 -39.0015 -38.9406 -38.8848 -38.8810
     3.7927   6.1780   9.4529  10.2102  11.8332  11.8701  12.1809  12.8521
    12.9546  13.5246  13.6289  13.7657  14.3095  14.5122  14.9968

          k = 0.0000 0.1531 0.0000 (  3257 PWs)   bands (ev):

   -72.9638 -72.9378 -39.1997 -39.0484 -38.9923 -38.9496 -38.8804 -38.8746
     3.2992   7.1089  10.1420  10.2093  10.9335  11.4481  12.4504  12.8753
    12.9579  12.9829  13.6094  13.7114  14.3526  14.3894  17.4648

          k = 0.0000 0.1531 0.1443 (  3278 PWs)   bands (ev):

   -72.9638 -72.9378 -39.2000 -39.0486 -38.9926 -38.9498 -38.8806 -38.8750
     3.6791   7.3120   8.1567  10.3395  11.4421  11.5828  12.3908  12.6426
    12.9554  13.3156  13.6072  13.6952  14.3597  14.4265  17.3423

          k = 0.0000 0.1531-0.2887 (  3274 PWs)   bands (ev):

   -72.9638 -72.9378 -39.1999 -39.0483 -38.9927 -38.9497 -38.8807 -38.8754
     4.2627   6.7048   7.8036   9.8773  11.7038  11.7766  12.3022  12.3785
    12.9528  13.6048  13.6799  13.7957  13.8427  14.3662  17.0596

          k = 0.0000-0.3062 0.0000 (  3282 PWs)   bands (ev):

   -72.9508 -72.9508 -39.1279 -39.1279 -38.9714 -38.9714 -38.8741 -38.8741
     4.8099   4.8099  10.3842  10.3842  11.3723  11.3723  12.4443  12.4443
    13.2727  13.2727  13.8205  13.8205  14.0140  14.0140  16.7372

          k = 0.0000-0.3062 0.1443 (  3244 PWs)   bands (ev):

   -72.9508 -72.9508 -39.1277 -39.1277 -38.9710 -38.9710 -38.8738 -38.8738
     5.1466   5.1466   9.3062   9.3062  11.5511  11.5511  12.1694  12.1694
    13.2605  13.2605  13.9434  13.9434  14.0214  14.0214  18.4498

          k = 0.0000-0.3062-0.2887 (  3268 PWs)   bands (ev):

   -72.9508 -72.9508 -39.1281 -39.1281 -38.9709 -38.9709 -38.8745 -38.8745
     5.6322   5.6322   8.2828   8.2828  11.6400  11.6400  12.0217  12.0217
    13.2487  13.2487  14.0164  14.0164  14.0286  14.0286  20.6794

          k = 0.1667 0.0000 0.0000 (  3275 PWs)   bands (ev):

   -72.9622 -72.9303 -39.2095 -39.0420 -39.0205 -38.9903 -38.8784 -38.8747
     3.3973   9.3569  10.2464  10.5857  10.9341  11.5856  11.7920  12.5729
    12.6711  12.7731  13.5056  14.0361  14.7751  14.8396  15.9584

          k = 0.1667 0.0000 0.1443 (  3279 PWs)   bands (ev):

   -72.9621 -72.9303 -39.2095 -39.0421 -39.0205 -38.9904 -38.8785 -38.8748
     3.7741   8.0417  10.1018  10.3256  11.5251  11.8187  12.2560  12.6125
    12.6244  12.9644  13.4614  13.5668  14.7294  14.8373  17.4265

          k = 0.1667 0.0000-0.2887 (  3286 PWs)   bands (ev):

   -72.9621 -72.9303 -39.2093 -39.0422 -39.0206 -38.9905 -38.8788 -38.8750
     4.3509   6.8158   9.8298  10.6082  11.7922  12.0577  12.4254  12.5510
    12.6615  13.3188  13.5281  13.5977  13.7712  15.1650  16.2650

          k = 0.1667 0.1531 0.0000 (  3283 PWs)   bands (ev):

   -72.9575 -72.9350 -39.1891 -39.0650 -39.0297 -38.9843 -38.8758 -38.8722
     3.9088   7.6419  10.3932  10.5859  11.2459  11.4454  12.4557  12.4694
    12.7528  12.9435  13.7412  13.7540  14.7755  14.8339  17.4681

          k = 0.1667 0.1531 0.1443 (  3261 PWs)   bands (ev):

   -72.9575 -72.9350 -39.1890 -39.0647 -39.0295 -38.9841 -38.8756 -38.8722
     4.2716   7.8117   8.7125  10.7622  11.4984  11.6857  12.2491  12.4574
    12.7115  13.2399  13.5539  13.7311  14.1467  15.2434  17.4759

          k = 0.1667 0.1531-0.2887 (  3282 PWs)   bands (ev):

   -72.9575 -72.9350 -39.1891 -39.0648 -39.0297 -38.9844 -38.8761 -38.8724
     4.8155   7.3046   8.3148  10.3980  11.8696  11.9008  11.9584  12.4548
    12.6512  13.3019  13.3478  13.7836  13.9812  14.9248  17.2806

          k = 0.1667-0.3062 0.0000 (  3250 PWs)   bands (ev):

   -72.9462 -72.9462 -39.1338 -39.1338 -39.0024 -39.0024 -38.8711 -38.8711
     5.3926   5.3926  10.7507  10.7507  11.5953  11.5953  12.0165  12.0165
    13.1265  13.1265  13.7343  13.7343  14.8412  14.8412  16.9231

          k = 0.1667-0.3062 0.1443 (  3266 PWs)   bands (ev):

   -72.9462 -72.9462 -39.1341 -39.1341 -39.0025 -39.0025 -38.8713 -38.8713
     5.7125   5.7125   9.7911   9.7911  11.7549  11.7549  12.0042  12.0042
    13.0490  13.0490  13.8451  13.8451  14.2186  14.2186  18.9745

          k = 0.1667-0.3062-0.2887 (  3268 PWs)   bands (ev):

   -72.9462 -72.9462 -39.1341 -39.1341 -39.0024 -39.0024 -38.8715 -38.8715
     6.1636   6.1636   8.8639   8.8639  11.8300  11.8300  11.9966  11.9966
    12.9652  12.9652  13.7798  13.7798  14.1469  14.1469  20.4350

          k = 0.3333 0.0000 0.0000 (  3275 PWs)   bands (ev):

   -72.9463 -72.9278 -39.1609 -39.1187 -39.0890 -39.0518 -38.8678 -38.8657
     5.1935   9.9506  10.6626  10.8555  11.1949  11.4410  12.0297  12.4139
    12.8653  12.8877  14.0806  14.8119  15.3293  15.4030  15.5473

          k = 0.3333 0.0000 0.1443 (  3271 PWs)   bands (ev):

   -72.9462 -72.9278 -39.1612 -39.1186 -39.0890 -39.0517 -38.8677 -38.8655
     5.5153   9.3345  10.7287  10.8629  11.1666  11.5705  11.8990  12.4775
    12.7742  13.1791  13.5515  14.0905  14.6169  15.4734  17.0266

          k = 0.3333 0.0000-0.2887 (  3262 PWs)   bands (ev):

   -72.9462 -72.9278 -39.1611 -39.1188 -39.0889 -39.0518 -38.8675 -38.8653
     5.9699   8.5500  10.6699  10.9356  11.1986  11.5924  12.3536  12.3627
    12.5110  13.3125  13.4700  13.7739  14.1356  15.7265  17.9843

          k = 0.3333 0.1531 0.0000 (  3279 PWs)   bands (ev):

   -72.9436 -72.9305 -39.1790 -39.1305 -39.0807 -39.0303 -38.8672 -38.8665
     5.6695   9.0222  10.5550  10.8811  11.3252  11.7039  11.9940  12.0576
    12.8351  13.1263  14.0351  14.2674  15.3138  15.6724  15.8614

          k = 0.3333 0.1531 0.1443 (  3260 PWs)   bands (ev):

   -72.9435 -72.9305 -39.1788 -39.1304 -39.0806 -39.0303 -38.8671 -38.8660
     5.9810   9.1180  10.0164  10.9048  11.2461  11.6366  12.0242  12.2646
    13.0016  13.0855  13.5787  14.0073  14.1599  15.2775  17.3346

          k = 0.3333 0.1531-0.2887 (  3250 PWs)   bands (ev):

   -72.9435 -72.9305 -39.1788 -39.1301 -39.0804 -39.0304 -38.8670 -38.8661
     6.4155   8.8275   9.7727  11.1256  11.2532  11.4501  12.2008  12.3161
    12.3632  12.9885  13.5239  13.7754  14.0692  15.9618  16.2386

          k = 0.3333-0.3062 0.0000 (  3248 PWs)   bands (ev):

   -72.9370 -72.9370 -39.1722 -39.1722 -39.0378 -39.0378 -38.8663 -38.8663
     7.0409   7.0409  11.0785  11.0785  11.4098  11.4098  12.1138  12.1138
    12.9385  12.9385  13.7575  13.7575  15.7619  15.7619  16.6834

          k = 0.3333-0.3062 0.1443 (  3270 PWs)   bands (ev):

   -72.9370 -72.9370 -39.1723 -39.1723 -39.0380 -39.0380 -38.8666 -38.8666
     7.3171   7.3171  10.5588  10.5588  11.6495  11.6495  12.1717  12.1717
    12.9325  12.9325  13.5814  13.5814  14.5170  14.5170  17.1312

          k = 0.3333-0.3062-0.2887 (  3268 PWs)   bands (ev):

   -72.9370 -72.9370 -39.1722 -39.1722 -39.0380 -39.0380 -38.8667 -38.8667
     7.6788   7.6788  10.1407  10.1407  11.6286  11.6286  12.3112  12.3112
    12.4496  12.4496  13.6278  13.6278  14.3518  14.3518  17.0956

          k =-0.5000 0.0000 0.0000 (  3242 PWs)   bands (ev):

   -72.9324 -72.9324 -39.1468 -39.1468 -39.1020 -39.1020 -38.8616 -38.8616
     7.9435   7.9435  10.4566  10.4566  11.2510  11.2510  12.7933  12.7933
    12.9512  12.9512  14.7414  14.7414  16.5926  16.5926  16.9070

          k =-0.5000 0.0000 0.1443 (  3254 PWs)   bands (ev):

   -72.9324 -72.9324 -39.1468 -39.1468 -39.1021 -39.1021 -38.8618 -38.8618
     8.1634   8.1634  10.5023  10.5023  11.1955  11.1955  12.6850  12.6850
    13.0082  13.0082  14.0126  14.0126  15.6873  15.6873  17.0341

          k =-0.5000 0.0000-0.2887 (  3220 PWs)   bands (ev):

   -72.9324 -72.9324 -39.1467 -39.1467 -39.1019 -39.1019 -38.8613 -38.8613
     8.4130   8.4130  10.6925  10.6925  11.1438  11.1438  12.1160  12.1160
    13.0612  13.0612  13.5293  13.5293  15.6566  15.6566  17.1772

          k =-0.5000 0.1531 0.0000 (  3254 PWs)   bands (ev):

   -72.9324 -72.9324 -39.1827 -39.1827 -39.0649 -39.0649 -38.8630 -38.8630
     8.2797   8.2797  10.6494  10.6494  11.2237  11.2237  12.1950  12.1950
    12.6652  12.6652  14.6964  14.6964  15.3066  15.3066  17.2866

          k =-0.5000 0.1531 0.1443 (  3250 PWs)   bands (ev):

   -72.9324 -72.9324 -39.1826 -39.1826 -39.0650 -39.0650 -38.8629 -38.8629
     8.5303   8.5303  10.3480  10.3480  11.5973  11.5973  12.0641  12.0641
    13.0080  13.0080  13.8066  13.8066  14.9887  14.9887  16.9267

          k =-0.5000 0.1531-0.2887 (  3244 PWs)   bands (ev):

   -72.9324 -72.9324 -39.1827 -39.1827 -39.0649 -39.0649 -38.8628 -38.8628
     8.8059   8.8059  10.3444  10.3444  11.6785  11.6785  11.9241  11.9241
    12.7597  12.7597  13.4913  13.4913  15.3178  15.3178  16.1824

          k =-0.5000-0.3062 0.0000 (  3252 PWs)   bands (ev):

   -72.9324 -72.9324 -39.2037 -39.2037 -39.0426 -39.0426 -38.8643 -38.8643
     8.7974   8.7974  10.6853  10.6853  11.0256  11.0256  11.5591  11.5591
    12.8642  12.8642  14.0253  14.0253  15.0675  15.0675  17.9821

          k =-0.5000-0.3062 0.1443 (  3232 PWs)   bands (ev):

   -72.9324 -72.9324 -39.2033 -39.2033 -39.0425 -39.0425 -38.8641 -38.8641
     9.2071   9.2071   9.9350   9.9350  11.4214  11.4214  12.1507  12.1507
    12.9547  12.9547  13.3952  13.3952  14.6275  14.6275  17.3816

          k =-0.5000-0.3062-0.2887 (  3280 PWs)   bands (ev):

   -72.9324 -72.9324 -39.2038 -39.2038 -39.0429 -39.0429 -38.8646 -38.8646
     9.6237   9.6237   9.9622   9.9622  10.8923  10.8923  12.5874  12.5874
    12.6925  12.6925  13.6613  13.6613  14.5145  14.5145  15.7975

     the Fermi energy is    13.7322 ev

!    total energy              =    -737.54375594 Ry
     total all-electron energy =     -6062.422391 Ry
     estimated scf accuracy    <          5.6E-11 Ry
     smearing contrib. (-TS)   =      -0.00029123 Ry
     internal energy E=F+TS    =    -737.54346471 Ry

     The total energy is F=E-TS. E is the sum of the following terms:
     one-electron contribution =    -360.78769857 Ry
     hartree contribution      =     200.80171797 Ry
     xc contribution           =     -75.74237242 Ry
     ewald contribution        =    -280.99601160 Ry
     one-center paw contrib.   =    -220.81910010 Ry

     convergence has been achieved in  10 iterations

     Forces acting on atoms (cartesian axes, Ry/au):

     atom    1 type  1   force =     0.00000000    0.00000000   -0.01140846
     atom    2 type  1   force =     0.00000000    0.00000000    0.01140846
     atom    3 type  2   force =     0.00000000    0.00000000   -0.02252806
     atom    4 type  2   force =     0.00000000    0.00000000    0.02252806

     Total force =     0.035712     Total SCF correction =     0.000002


     Computing stress (Cartesian axis) and pressure

          total   stress  (Ry/bohr**3)                   (kbar)     P=      -16.08
   0.00075266   0.00000000   0.00000000          110.72        0.00        0.00
   0.00000000  -0.00007888   0.00000000            0.00      -11.60        0.00
   0.00000000   0.00000000  -0.00100165            0.00        0.00     -147.35


     Writing all to output data dir ./FeAl.save/ :
     XML data file, charge density, pseudopotentials, collected wavefunctions

     init_run     :      4.12s CPU      4.23s WALL (       1 calls)
     electrons    :     79.76s CPU     82.55s WALL (       1 calls)
     forces       :      1.28s CPU      1.38s WALL (       1 calls)
     stress       :      4.88s CPU      6.13s WALL (       1 calls)

     Called by init_run:
     wfcinit      :      2.46s CPU      2.41s WALL (       1 calls)
     potinit      :      0.59s CPU      0.62s WALL (       1 calls)
     hinit0       :      0.75s CPU      0.74s WALL (       1 calls)

     Called by electrons:
     c_bands      :     64.61s CPU     64.91s WALL (      11 calls)
     sum_band     :      8.74s CPU     10.22s WALL (      11 calls)
     v_of_rho     :      0.68s CPU      0.69s WALL (      11 calls)
     newd         :      3.06s CPU      4.29s WALL (      11 calls)
     PAW_pot      :      3.24s CPU      3.19s WALL (      11 calls)
     mix_rho      :      0.06s CPU      0.06s WALL (      11 calls)

     Called by c_bands:
     init_us_2    :      0.82s CPU      0.80s WALL (     900 calls)
     cegterg      :     63.01s CPU     63.34s WALL (     396 calls)

     Called by *egterg:
     cdiaghg      :      1.16s CPU      1.13s WALL (    2036 calls)
     h_psi        :     32.00s CPU     33.17s WALL (    2108 calls)
     s_psi        :      6.64s CPU      6.46s WALL (    2108 calls)
     g_psi        :      0.18s CPU      0.18s WALL (    1676 calls)

     Called by h_psi:
     h_psi:calbec :      7.02s CPU      7.82s WALL (    2108 calls)
     vloc_psi     :     18.11s CPU     18.67s WALL (    2108 calls)
                                        0.00s GPU  (    2108 calls)
     add_vuspsi   :      6.70s CPU      6.52s WALL (    2108 calls)

     General routines
     calbec       :     11.83s CPU     13.50s WALL (    3116 calls)
     fft          :      0.62s CPU      0.61s WALL (     167 calls)
     ffts         :      0.17s CPU      0.16s WALL (      22 calls)
     fftw         :     17.86s CPU     17.45s WALL (   68872 calls)
     interpolate  :      0.18s CPU      0.18s WALL (      11 calls)

     Parallel routines

     PWSCF        :   1m30.17s CPU   1m34.45s WALL


   This run was terminated on:   5:14:23  10Jul2026            

=------------------------------------------------------------------------------=
   JOB DONE.
=------------------------------------------------------------------------------=
