
     Program PWSCF v.7.5 starts on 28Jul2026 at 17:40:40 

     This program is part of the open-source Quantum ESPRESSO suite
     for quantum simulation of materials; please cite
         "P. Giannozzi et al., J. Phys.:Condens. Matter 21 395502 (2009);
         "P. Giannozzi et al., J. Phys.:Condens. Matter 29 465901 (2017);
         "P. Giannozzi et al., J. Chem. Phys. 152 154105 (2020);
          URL http://www.quantum-espresso.org", 
     in publications or presentations arising from this work. More details at
     http://www.quantum-espresso.org/quote

     Parallel version (MPI), running on     1 processors

     MPI processes distributed on     1 nodes
     12417 MiB available memory on the printing compute node when the environment starts

     Reading input from espresso.pwi
Warning: card &CELL ignored
Warning: card &FCP ignored
Warning: card &RISM ignored

     Current dimensions of program PWSCF are:
     Max number of different atomic species (ntypx) = 10
     Max number of k-points (npk) =  40000
     Max angular momentum in pseudopotentials (lmaxx) =  4
     Message from routine setup:
     using ibrav=0 with symmetry is DISCOURAGED, use correct ibrav instead

     Subspace diagonalization in iterative solution of the eigenvalue problem:
     a serial algorithm will be used


     G-vector sticks info
     --------------------
     sticks:   dense  smooth     PW     G-vecs:    dense   smooth      PW
     Sum        1417     931    283                35053    18907    3143

     Using Slab Decomposition



     bravais-lattice index     =            0
     lattice parameter (alat)  =       7.5371  a.u.
     unit-cell volume          =     302.7633 (a.u.)^3
     number of atoms/cell      =            2
     number of atomic types    =            2
     number of electrons       =        16.00
     number of Kohn-Sham states=           12
     kinetic-energy cutoff     =      60.0000  Ry
     charge density cutoff     =     360.0000  Ry
     scf convergence threshold =      1.0E-08
     mixing beta               =       0.7000
     number of iterations used =            8  plain     mixing
     Exchange-correlation=  SLA  PW   PBX  PBC
                           (   1   4   3   4   0   0   0)

     celldm(1)=   7.537132  celldm(2)=   0.000000  celldm(3)=   0.000000
     celldm(4)=   0.000000  celldm(5)=   0.000000  celldm(6)=   0.000000

     crystal axes: (cart. coord. in units of alat)
               a(1) = (   0.000000   0.707107   0.707107 )  
               a(2) = (   0.707107   0.000000   0.707107 )  
               a(3) = (   0.707107   0.707107   0.000000 )  

     reciprocal axes: (cart. coord. in units 2 pi/alat)
               b(1) = ( -0.707107  0.707107  0.707107 )  
               b(2) = (  0.707107 -0.707107  0.707107 )  
               b(3) = (  0.707107  0.707107 -0.707107 )  


     PseudoPot. # 1 for Na read from file:
     /home/yluo/ASE/pseudopotential-library/na_pbe_v1.5.uspp.F.UPF
     MD5 check sum: 44600605ef58000f06b90626533354dc
     Pseudo is Ultrasoft, Zval =  9.0
     Generated by new atomic code, or converted to UPF format
     Using radial grid of  819 points,  5 beta functions with: 
                l(1) =   0
                l(2) =   0
                l(3) =   1
                l(4) =   1
                l(5) =   2
     Q(r) pseudized with  8 coefficients,  rinner =    1.250   1.250   1.250
                                                       1.250   1.250

     PseudoPot. # 2 for Cl read from file:
     /home/yluo/ASE/pseudopotential-library/cl_pbe_v1.4.uspp.F.UPF
     MD5 check sum: fc6f6913ecf08c9257cb748ef0700058
     Pseudo is Ultrasoft + core correction, Zval =  7.0
     Generated by new atomic code, or converted to UPF format
     Using radial grid of  909 points,  6 beta functions with: 
                l(1) =   0
                l(2) =   0
                l(3) =   1
                l(4) =   1
                l(5) =   2
                l(6) =   2
     Q(r) pseudized with  8 coefficients,  rinner =    1.300   1.300   1.300
                                                       1.300   1.300

     atomic species   valence    mass     pseudopotential
     Na                9.00    22.98977     Na( 1.00)
     Cl                7.00    35.45000     Cl( 1.00)

     48 Sym. Ops., with inversion, found



   Cartesian axes

     site n.     atom                  positions (alat units)
         1        Na     tau(   1) = (   0.0000000   0.0000000   0.0000000  )
         2        Cl     tau(   2) = (   0.7071068   0.7071068   0.7071068  )

     number of k points=   120  Marzari-Vanderbilt smearing, width (Ry)=  0.0050

     Number of k-points >= 100: set verbosity='high' to print them.

     Dense  grid:    35053 G-vectors     FFT dimensions: (  45,  45,  45)

     Smooth grid:    18907 G-vectors     FFT dimensions: (  40,  40,  40)

     Estimated max dynamical RAM per process >     186.10 MB

     Initial potential from superposition of free atoms

     starting charge      15.9937, renormalised to      16.0000

     negative rho (up, down):  1.462E-02 0.000E+00
     Starting wfcs are    9 randomized atomic wfcs +    3 random wfcs

     total cpu time spent up to now is        3.6 secs

     Self-consistent Calculation

     iteration #  1     ecut=    60.00 Ry     beta= 0.70
     Davidson diagonalization with overlap
     ethr =  1.00E-02,  avg # of iterations =  5.5

     Threshold (ethr) on eigenvalues was too large:
     Diagonalizing with lowered threshold

     Davidson diagonalization with overlap
     ethr =  3.25E-04,  avg # of iterations =  2.8

     negative rho (up, down):  1.501E-02 0.000E+00

     total cpu time spent up to now is       19.8 secs

     total energy              =    -128.88852549 Ry
     estimated scf accuracy    <       0.05004952 Ry

     iteration #  2     ecut=    60.00 Ry     beta= 0.70
     Davidson diagonalization with overlap
     ethr =  3.13E-04,  avg # of iterations =  2.0

     negative rho (up, down):  1.441E-02 0.000E+00

     total cpu time spent up to now is       27.0 secs

     total energy              =    -128.90177548 Ry
     estimated scf accuracy    <       0.01011009 Ry

     iteration #  3     ecut=    60.00 Ry     beta= 0.70
     Davidson diagonalization with overlap
     ethr =  6.32E-05,  avg # of iterations =  2.5

     negative rho (up, down):  1.413E-02 0.000E+00

     total cpu time spent up to now is       34.5 secs

     total energy              =    -128.90375880 Ry
     estimated scf accuracy    <       0.00023276 Ry

     iteration #  4     ecut=    60.00 Ry     beta= 0.70
     Davidson diagonalization with overlap
     ethr =  1.45E-06,  avg # of iterations =  5.4

     negative rho (up, down):  1.417E-02 0.000E+00

     total cpu time spent up to now is       44.4 secs

     total energy              =    -128.90379002 Ry
     estimated scf accuracy    <       0.00000912 Ry

     iteration #  5     ecut=    60.00 Ry     beta= 0.70
     Davidson diagonalization with overlap
     ethr =  5.70E-08,  avg # of iterations =  2.2

     negative rho (up, down):  1.420E-02 0.000E+00

     total cpu time spent up to now is       51.7 secs

     total energy              =    -128.90379191 Ry
     estimated scf accuracy    <       0.00000063 Ry

     iteration #  6     ecut=    60.00 Ry     beta= 0.70
     Davidson diagonalization with overlap
     ethr =  3.91E-09,  avg # of iterations =  3.5

     negative rho (up, down):  1.419E-02 0.000E+00

     total cpu time spent up to now is       60.3 secs

     total energy              =    -128.90379235 Ry
     estimated scf accuracy    <       0.00000020 Ry

     iteration #  7     ecut=    60.00 Ry     beta= 0.70
     Davidson diagonalization with overlap
     ethr =  1.28E-09,  avg # of iterations =  2.0

     negative rho (up, down):  1.419E-02 0.000E+00

     total cpu time spent up to now is       67.5 secs

     End of self-consistent calculation

     Number of k-points >= 100: set verbosity='high' to print the bands.

     the Fermi energy is     4.1573 ev

!    total energy              =    -128.90379239 Ry
     estimated scf accuracy    <          6.3E-10 Ry
     smearing contrib. (-TS)   =       0.00000000 Ry
     internal energy E=F+TS    =    -128.90379239 Ry

     The total energy is F=E-TS. E is the sum of the following terms:
     one-electron contribution =     -81.64909587 Ry
     hartree contribution      =      45.44876558 Ry
     xc contribution           =     -23.90426909 Ry
     ewald contribution        =     -68.79919301 Ry

     convergence has been achieved in   7 iterations

     negative rho (up, down):  1.419E-02 0.000E+00

     Forces acting on atoms (cartesian axes, Ry/au):

     atom    1 type  1   force =     0.00000000    0.00000000    0.00000000
     atom    2 type  2   force =     0.00000000    0.00000000   -0.00000000

     Total force =     0.000000     Total SCF correction =     0.000000


     Computing stress (Cartesian axis) and pressure


     negative rho (up, down):  1.419E-02 0.000E+00
          total   stress  (Ry/bohr**3)                   (kbar)     P=        8.57
   0.00005823  -0.00000000  -0.00000000            8.57       -0.00       -0.00
  -0.00000000   0.00005823  -0.00000000           -0.00        8.57       -0.00
  -0.00000000  -0.00000000   0.00005823           -0.00       -0.00        8.57


     Writing all to output data dir ./NaCl.save/ :
     XML data file, charge density, pseudopotentials, collected wavefunctions

     init_run     :      3.26s CPU      3.44s WALL (       1 calls)
     electrons    :     62.01s CPU     63.92s WALL (       1 calls)
     forces       :      1.12s CPU      1.21s WALL (       1 calls)
     stress       :      5.14s CPU      5.47s WALL (       1 calls)

     Called by init_run:
     wfcinit      :      2.34s CPU      2.38s WALL (       1 calls)
     potinit      :      0.26s CPU      0.26s WALL (       1 calls)
     hinit0       :      0.48s CPU      0.48s WALL (       1 calls)

     Called by electrons:
     c_bands      :     52.63s CPU     52.88s WALL (       8 calls)
     sum_band     :      8.15s CPU      9.20s WALL (       8 calls)
     v_of_rho     :      0.29s CPU      0.29s WALL (       8 calls)
     newd         :      1.06s CPU      1.78s WALL (       8 calls)
     mix_rho      :      0.03s CPU      0.03s WALL (       8 calls)

     Called by c_bands:
     init_us_2    :      1.69s CPU      1.69s WALL (    2280 calls)
     cegterg      :     49.97s CPU     50.19s WALL (     960 calls)

     Called by *egterg:
     cdiaghg      :      0.79s CPU      0.79s WALL (    3941 calls)
     h_psi        :     33.55s CPU     33.77s WALL (    4181 calls)
     s_psi        :      4.46s CPU      4.47s WALL (    4181 calls)
     g_psi        :      0.19s CPU      0.19s WALL (    3101 calls)

     Called by h_psi:
     h_psi:calbec :      4.26s CPU      4.26s WALL (    4181 calls)
     vloc_psi     :     24.70s CPU     24.91s WALL (    4181 calls)
                                        0.00s GPU  (    4181 calls)
     add_vuspsi   :      4.43s CPU      4.44s WALL (    4181 calls)

     General routines
     calbec       :      8.84s CPU      8.84s WALL (    7181 calls)
     fft          :      0.24s CPU      0.25s WALL (     128 calls)
     ffts         :      0.19s CPU      0.19s WALL (      16 calls)
     fftw         :     24.75s CPU     25.03s WALL (   74534 calls)
     interpolate  :      0.20s CPU      0.20s WALL (       8 calls)

     Parallel routines

     PWSCF        :   1m11.74s CPU   1m14.29s WALL


   This run was terminated on:  17:41:54  28Jul2026            

=------------------------------------------------------------------------------=
   JOB DONE.
=------------------------------------------------------------------------------=
