
     Program PWSCF v.7.5 starts on 17Jul2026 at 16:33: 6 

     This program is part of the open-source Quantum ESPRESSO suite
     for quantum simulation of materials; please cite
         "P. Giannozzi et al., J. Phys.:Condens. Matter 21 395502 (2009);
         "P. Giannozzi et al., J. Phys.:Condens. Matter 29 465901 (2017);
         "P. Giannozzi et al., J. Chem. Phys. 152 154105 (2020);
          URL http://www.quantum-espresso.org", 
     in publications or presentations arising from this work. More details at
     http://www.quantum-espresso.org/quote

     Parallel version (MPI), running on     1 processors

     MPI processes distributed on     1 nodes
     12140 MiB available memory on the printing compute node when the environment starts

     Reading input from espresso.pwi
Warning: card &FCP ignored
Warning: card &RISM ignored

     Current dimensions of program PWSCF are:
     Max number of different atomic species (ntypx) = 10
     Max number of k-points (npk) =  40000
     Max angular momentum in pseudopotentials (lmaxx) =  4
     file O.pbe-n-kjpaw_psl.0.1.UPF: wavefunction(s)  2P renormalized
     Message from routine setup:
     using ibrav=0 with symmetry is DISCOURAGED, use correct ibrav instead

     Subspace diagonalization in iterative solution of the eigenvalue problem:
     a serial algorithm will be used


     G-vector sticks info
     --------------------
     sticks:   dense  smooth     PW     G-vecs:    dense   smooth      PW
     Sum        2025    2025    593                43729    43729    6849

     Using Slab Decomposition



     bravais-lattice index     =            0
     lattice parameter (alat)  =       7.9741  a.u.
     unit-cell volume          =     323.5214 (a.u.)^3
     number of atoms/cell      =            6
     number of atomic types    =            2
     number of electrons       =        32.00
     number of Kohn-Sham states=           20
     kinetic-energy cutoff     =     100.0000  Ry
     charge density cutoff     =     400.0000  Ry
     scf convergence threshold =      1.0E-08
     mixing beta               =       0.7000
     number of iterations used =            8  plain     mixing
     energy convergence thresh.=      1.0E-04
     force convergence thresh. =      1.0E-03
     press convergence thresh. =      5.0E-01
     Exchange-correlation= SLA  PW   PBX  PBC
                           (   1   4   3   4   0   0   0)
     nstep                     =           50


     celldm(1)=   7.974077  celldm(2)=   0.000000  celldm(3)=   0.000000
     celldm(4)=   0.000000  celldm(5)=   0.000000  celldm(6)=   0.000000

     crystal axes: (cart. coord. in units of alat)
               a(1) = (   1.000000   0.000000   0.000000 )  
               a(2) = (   0.000000   1.000000   0.000000 )  
               a(3) = (   0.000000   0.000000   0.638060 )  

     reciprocal axes: (cart. coord. in units 2 pi/alat)
               b(1) = (  1.000000  0.000000  0.000000 )  
               b(2) = (  0.000000  1.000000  0.000000 )  
               b(3) = (  0.000000  0.000000  1.567250 )  


     PseudoPot. # 1 for Si read from file:
     /home/yluo/ASE/05b_ev/ase/src/Si.pbe-n-rrkjus_psl.1.0.0.UPF
     MD5 check sum: 0b0bb1205258b0d07b9f9672cf965d36
     Pseudo is Ultrasoft + core correction, Zval =  4.0
     Generated using "atomic" code by A. Dal Corso  v.5.1
     Using radial grid of 1141 points,  6 beta functions with: 
                l(1) =   0
                l(2) =   0
                l(3) =   1
                l(4) =   1
                l(5) =   2
                l(6) =   2
     Q(r) pseudized with 0 coefficients 


     PseudoPot. # 2 for O  read from file:
     /home/yluo/ASE/05b_ev/ase/src/O.pbe-n-kjpaw_psl.0.1.UPF
     MD5 check sum: 0234752ac141de4415c5fc33072bef88
     Pseudo is Projector augmented-wave + core cor, Zval =  6.0
     Generated using "atomic" code by A. Dal Corso  v.5.0.99 svn rev. 10869
     Shape of augmentation charge: BESSEL
     Using radial grid of 1095 points,  4 beta functions with: 
                l(1) =   0
                l(2) =   0
                l(3) =   1
                l(4) =   1
     Q(r) pseudized with 0 coefficients 


     atomic species   valence    mass     pseudopotential
     Si                4.00    28.08500     Si( 1.00)
     O                 6.00    15.99900     O ( 1.00)

     16 Sym. Ops., with inversion, found ( 8 have fractional translation)



   Cartesian axes

     site n.     atom                  positions (alat units)
         1        Si     tau(   1) = (   0.0000000   0.0000000   0.0000000  )
         2        Si     tau(   2) = (   0.5000000   0.5000000   0.3190301  )
         3        O      tau(   3) = (   0.3061300   0.3061300   0.0000000  )
         4        O      tau(   4) = (   0.6938700   0.6938700   0.0000000  )
         5        O      tau(   5) = (   0.1938700   0.8061300   0.3190301  )
         6        O      tau(   6) = (   0.8061300   0.1938700   0.3190301  )

     number of k points=    30  Marzari-Vanderbilt smearing, width (Ry)=  0.0050
                       cart. coord. in units 2pi/alat
        k(    1) = (   0.0000000   0.0000000   0.0000000), wk =   0.0138889
        k(    2) = (   0.0000000   0.0000000   0.1741389), wk =   0.0277778
        k(    3) = (   0.0000000   0.0000000   0.3482779), wk =   0.0277778
        k(    4) = (   0.0000000   0.0000000   0.5224168), wk =   0.0277778
        k(    5) = (   0.0000000   0.0000000   0.6965557), wk =   0.0277778
        k(    6) = (   0.0000000   0.2500000   0.0000000), wk =   0.0555556
        k(    7) = (   0.0000000   0.2500000   0.1741389), wk =   0.1111111
        k(    8) = (   0.0000000   0.2500000   0.3482779), wk =   0.1111111
        k(    9) = (   0.0000000   0.2500000   0.5224168), wk =   0.1111111
        k(   10) = (   0.0000000   0.2500000   0.6965557), wk =   0.1111111
        k(   11) = (   0.0000000  -0.5000000   0.0000000), wk =   0.0277778
        k(   12) = (   0.0000000  -0.5000000   0.1741389), wk =   0.0555556
        k(   13) = (   0.0000000  -0.5000000   0.3482779), wk =   0.0555556
        k(   14) = (   0.0000000  -0.5000000   0.5224168), wk =   0.0555556
        k(   15) = (   0.0000000  -0.5000000   0.6965557), wk =   0.0555556
        k(   16) = (   0.2500000   0.2500000   0.0000000), wk =   0.0555556
        k(   17) = (   0.2500000   0.2500000   0.1741389), wk =   0.1111111
        k(   18) = (   0.2500000   0.2500000   0.3482779), wk =   0.1111111
        k(   19) = (   0.2500000   0.2500000   0.5224168), wk =   0.1111111
        k(   20) = (   0.2500000   0.2500000   0.6965557), wk =   0.1111111
        k(   21) = (   0.2500000  -0.5000000   0.0000000), wk =   0.0555556
        k(   22) = (   0.2500000  -0.5000000   0.1741389), wk =   0.1111111
        k(   23) = (   0.2500000  -0.5000000   0.3482779), wk =   0.1111111
        k(   24) = (   0.2500000  -0.5000000   0.5224168), wk =   0.1111111
        k(   25) = (   0.2500000  -0.5000000   0.6965557), wk =   0.1111111
        k(   26) = (  -0.5000000  -0.5000000   0.0000000), wk =   0.0138889
        k(   27) = (  -0.5000000  -0.5000000   0.1741389), wk =   0.0277778
        k(   28) = (  -0.5000000  -0.5000000   0.3482779), wk =   0.0277778
        k(   29) = (  -0.5000000  -0.5000000   0.5224168), wk =   0.0277778
        k(   30) = (  -0.5000000  -0.5000000   0.6965557), wk =   0.0277778

     Dense  grid:    43729 G-vectors     FFT dimensions: (  54,  54,  36)

     Estimated max dynamical RAM per process >     224.62 MB

     Check: negative core charge=   -0.000002

     Initial potential from superposition of free atoms

     starting charge      31.9989, renormalised to      32.0000
     Starting wfcs are   24 randomized atomic wfcs
     Checking if some PAW data can be deallocated... 

     total cpu time spent up to now is        3.7 secs

     Self-consistent Calculation

     iteration #  1     ecut=   100.00 Ry     beta= 0.70
     Davidson diagonalization with overlap
     ethr =  1.00E-02,  avg # of iterations =  2.6

     total cpu time spent up to now is       11.3 secs

     total energy              =    -189.58794995 Ry
     estimated scf accuracy    <       1.11584739 Ry

     iteration #  2     ecut=   100.00 Ry     beta= 0.70
     Davidson diagonalization with overlap
     ethr =  3.49E-03,  avg # of iterations =  2.8

     total cpu time spent up to now is       18.9 secs

     total energy              =    -189.99831214 Ry
     estimated scf accuracy    <       0.54537336 Ry

     iteration #  3     ecut=   100.00 Ry     beta= 0.70
     Davidson diagonalization with overlap
     ethr =  1.70E-03,  avg # of iterations =  1.9

     total cpu time spent up to now is       24.8 secs

     total energy              =    -190.06845068 Ry
     estimated scf accuracy    <       0.01396969 Ry

     iteration #  4     ecut=   100.00 Ry     beta= 0.70
     Davidson diagonalization with overlap
     ethr =  4.37E-05,  avg # of iterations =  6.9

     total cpu time spent up to now is       34.6 secs

     total energy              =    -190.07874912 Ry
     estimated scf accuracy    <       0.01164036 Ry

     iteration #  5     ecut=   100.00 Ry     beta= 0.70
     Davidson diagonalization with overlap
     ethr =  3.64E-05,  avg # of iterations =  1.7

     total cpu time spent up to now is       40.2 secs

     total energy              =    -190.07889507 Ry
     estimated scf accuracy    <       0.00177384 Ry

     iteration #  6     ecut=   100.00 Ry     beta= 0.70
     Davidson diagonalization with overlap
     ethr =  5.54E-06,  avg # of iterations =  3.5

     total cpu time spent up to now is       47.6 secs

     total energy              =    -190.07925419 Ry
     estimated scf accuracy    <       0.00004590 Ry

     iteration #  7     ecut=   100.00 Ry     beta= 0.70
     Davidson diagonalization with overlap
     ethr =  1.43E-07,  avg # of iterations =  4.2

     total cpu time spent up to now is       55.5 secs

     total energy              =    -190.07928188 Ry
     estimated scf accuracy    <       0.00000415 Ry

     iteration #  8     ecut=   100.00 Ry     beta= 0.70
     Davidson diagonalization with overlap
     ethr =  1.30E-08,  avg # of iterations =  2.0

     total cpu time spent up to now is       61.8 secs

     total energy              =    -190.07928220 Ry
     estimated scf accuracy    <       0.00000039 Ry

     iteration #  9     ecut=   100.00 Ry     beta= 0.70
     Davidson diagonalization with overlap
     ethr =  1.21E-09,  avg # of iterations =  2.9

     total cpu time spent up to now is       69.4 secs

     total energy              =    -190.07928236 Ry
     estimated scf accuracy    <       0.00000005 Ry

     iteration # 10     ecut=   100.00 Ry     beta= 0.70
     Davidson diagonalization with overlap
     ethr =  1.47E-10,  avg # of iterations =  2.0

     total cpu time spent up to now is       75.9 secs

     End of self-consistent calculation

          k = 0.0000 0.0000 0.0000 (  5425 PWs)   bands (ev):

   -12.1451  -8.6604  -8.6604  -8.4397  -0.5744   3.8597   3.8597   4.1196
     4.8604   5.1568   7.0691   7.0691   7.6451   9.2693   9.2693  10.1224
    15.2464  16.7212  18.4196  18.4196

          k = 0.0000 0.0000 0.1741 (  5448 PWs)   bands (ev):

   -11.9861  -8.5802  -8.5802  -8.4220  -0.5128   3.9941   3.9941   4.2946
     4.4148   4.9317   6.5258   6.5258   7.0461   9.1545   9.1545   9.9817
    15.8522  17.5677  19.1197  19.1197

          k = 0.0000 0.0000 0.3483 (  5456 PWs)   bands (ev):

   -11.5255  -8.4336  -8.3669  -8.3669  -0.3682   3.6321   4.0827   4.3771
     4.3771   4.8068   5.3423   5.3423   5.9940   8.7898   8.7898   9.5367
    16.9535  19.3187  20.0944  20.7021

          k = 0.0000 0.0000 0.5224 (  5452 PWs)   bands (ev):

   -10.8184  -8.6421  -8.1031  -8.1031  -0.1586   2.6782   3.3131   4.1680
     4.1680   4.9634   4.9634   5.1361   5.6146   8.2145   8.2145   8.7679
    17.7226  20.0702  20.6927  22.1362

          k = 0.0000 0.0000 0.6966 (  5504 PWs)   bands (ev):

    -9.9756  -9.1802  -7.9161  -7.9161   0.3301   1.3057   3.4802   3.4802
     3.6392   4.3350   5.5080   5.5080   6.6381   7.6493   7.6493   7.7472
    18.4197  19.3418  21.8775  22.5461

          k = 0.0000 0.2500 0.0000 (  5437 PWs)   bands (ev):

   -11.8318  -9.7124  -8.5085  -8.0221  -0.1334   2.5709   4.1780   5.0239
     5.0979   6.0399   6.5669   7.2004   7.6956   8.0870   9.1695   9.6754
    16.1603  17.2017  18.5692  18.6447

          k = 0.0000 0.2500 0.1741 (  5447 PWs)   bands (ev):

   -11.6780  -9.6098  -8.4392  -8.0035  -0.0333   2.6776   3.8242   4.7860
     5.3262   5.4326   6.4965   6.7324   6.9639   8.3515   9.0435   9.6359
    16.5917  17.9785  19.2238  19.2782

          k = 0.0000 0.2500 0.3483 (  5460 PWs)   bands (ev):

   -11.2348  -9.3410  -8.2623  -7.9896   0.1960   2.8931   2.9492   3.9501
     4.7474   5.5845   5.7477   6.0527   6.3498   8.4197   8.6628   9.3981
    17.3904  19.4744  20.3974  20.5902

          k = 0.0000 0.2500 0.5224 (  5480 PWs)   bands (ev):

   -10.5643  -9.0650  -8.0703  -8.0489   0.3547   2.2165   2.5101   3.4138
     4.0656   4.3832   6.0627   6.0661   6.4222   8.1164   8.2182   8.8916
    17.9743  19.7777  20.2935  21.1522

          k = 0.0000 0.2500 0.6966 (  5486 PWs)   bands (ev):

    -9.7961  -9.1770  -8.0540  -7.9897   0.5375   1.1456   2.7149   3.0972
     3.5986   3.7891   6.0794   6.3341   7.0675   7.7556   7.8245   8.2365
    18.4708  19.1203  20.4901  20.8568

          k = 0.0000-0.5000 0.0000 (  5466 PWs)   bands (ev):

   -10.9505 -10.9505  -8.1708  -8.1708   0.9983   0.9983   5.6576   5.6576
     5.7421   5.7421   6.3766   6.3766   7.4971   7.4971   9.0857   9.0857
    17.4953  17.4953  19.0177  19.0177

          k = 0.0000-0.5000 0.1741 (  5460 PWs)   bands (ev):

   -10.8140 -10.8140  -8.1303  -8.1303   1.1284   1.1284   4.4586   4.4586
     5.9992   5.9992   6.6256   6.6256   7.2763   7.2763   9.0073   9.0073
    17.9627  17.9627  19.7123  19.7123

          k = 0.0000-0.5000 0.3483 (  5462 PWs)   bands (ev):

   -10.4294 -10.4294  -8.0477  -8.0477   1.4746   1.4746   2.9857   2.9857
     5.2052   5.2052   6.8442   6.8442   7.2696   7.2696   8.8007   8.8007
    18.6729  18.6729  20.6047  20.6049

          k = 0.0000-0.5000 0.5224 (  5484 PWs)   bands (ev):

    -9.8847  -9.8847  -8.0267  -8.0267   1.5936   1.5936   2.0463   2.0463
     4.2343   4.2343   6.6619   6.6619   7.5790   7.5790   8.5895   8.5895
    18.8171  18.8171  20.0011  20.0011

          k = 0.0000-0.5000 0.6966 (  5476 PWs)   bands (ev):

    -9.3949  -9.3949  -8.1280  -8.1280   0.9749   0.9749   2.1858   2.1858
     3.7825   3.7825   6.3324   6.3324   7.8594   7.8594   8.4615   8.4615
    18.6503  18.6503  19.7294  19.7294

          k = 0.2500 0.2500 0.0000 (  5468 PWs)   bands (ev):

   -11.5391  -9.8785  -8.8325  -8.0864   0.3958   2.6513   3.9030   5.3218
     5.5367   6.2293   6.5220   7.0078   7.6052   7.6757   8.7270   9.3432
    16.5287  17.5121  18.6307  19.3489

          k = 0.2500 0.2500 0.1741 (  5451 PWs)   bands (ev):

   -11.3909  -9.7750  -8.7466  -8.0568   0.4853   2.4740   4.0078   4.8331
     5.4627   5.5177   6.5781   6.6736   6.9529   8.0885   8.6988   9.3951
    16.9347  18.1589  19.2048  19.9760

          k = 0.2500 0.2500 0.3483 (  5446 PWs)   bands (ev):

   -10.9666  -9.5035  -8.5172  -8.0088   0.6294   1.9448   3.6697   4.1343
     4.6883   5.0215   5.6417   6.4485   7.0146   8.1871   8.5760   9.3018
    17.5348  19.1013  20.2859  21.2721

          k = 0.2500 0.2500 0.5224 (  5466 PWs)   bands (ev):

   -10.3364  -9.2045  -8.2315  -8.0349   0.3849   1.5029   2.7152   3.4290
     3.8209   5.1486   5.1510   6.9338   6.9859   8.0418   8.2906   8.9632
    17.7546  18.8152  20.6217  21.8516

          k = 0.2500 0.2500 0.6966 (  5465 PWs)   bands (ev):

    -9.6506  -9.1791  -8.1226  -8.0274   0.0179   1.0380   2.6963   2.7831
     3.0954   4.9880   5.5801   7.0604   7.5168   7.7877   7.9500   8.4986
    17.8156  18.4094  20.4106  21.7777

          k = 0.2500-0.5000 0.0000 (  5466 PWs)   bands (ev):

   -10.7464 -10.7464  -8.5473  -8.5473   1.5849   1.5849   5.0810   5.0810
     5.9121   5.9121   6.8005   6.8005   7.2650   7.2650   8.6966   8.6966
    17.3158  17.3158  19.4786  19.4786

          k = 0.2500-0.5000 0.1741 (  5466 PWs)   bands (ev):

   -10.6163 -10.6163  -8.4827  -8.4827   1.5834   1.5834   4.5434   4.5434
     5.7128   5.7128   6.5889   6.5889   7.3361   7.3361   8.7761   8.7761
    17.7492  17.7492  20.0675  20.0675

          k = 0.2500-0.5000 0.3483 (  5458 PWs)   bands (ev):

   -10.2540 -10.2540  -8.3246  -8.3246   1.3733   1.3733   3.6959   3.6959
     4.7816   4.7816   6.5730   6.5730   7.5509   7.5509   8.7859   8.7859
    18.1969  18.1969  21.2989  21.2999

          k = 0.2500-0.5000 0.5224 (  5464 PWs)   bands (ev):

    -9.7572  -9.7572  -8.1745  -8.1745   0.7057   0.7057   3.1271   3.1271
     4.0714   4.0714   6.6579   6.6579   7.7777   7.7777   8.6666   8.6666
    17.9253  17.9253  21.0927  21.0928

          k = 0.2500-0.5000 0.6966 (  5452 PWs)   bands (ev):

    -9.3424  -9.3424  -8.1301  -8.1301   0.1333   0.1333   2.5697   2.5697
     4.1154   4.1154   6.6448   6.6448   7.9205   7.9205   8.5726   8.5726
    17.5851  17.5851  20.6983  20.6984

          k =-0.5000-0.5000 0.0000 (  5452 PWs)   bands (ev):

   -10.4589 -10.4589  -8.9950  -8.9950   2.3704   2.3704   4.3579   4.3579
     6.1689   6.1689   6.9473   6.9473   7.5301   7.5301   7.9376   7.9376
    17.2179  17.2179  19.9506  19.9506

          k =-0.5000-0.5000 0.1741 (  5440 PWs)   bands (ev):

   -10.3400 -10.3400  -8.9041  -8.9041   2.1277   2.1277   4.3798   4.3798
     5.9277   5.9277   6.0490   6.0490   8.0125   8.0125   8.0704   8.0704
    17.6220  17.6220  20.4585  20.4585

          k =-0.5000-0.5000 0.3483 (  5480 PWs)   bands (ev):

   -10.0165 -10.0165  -8.6604  -8.6604   1.3713   1.3713   4.0064   4.0064
     5.2889   5.2889   5.6198   5.6198   8.2091   8.2091   8.4246   8.4246
    17.9453  17.9453  21.3527  21.3528

          k =-0.5000-0.5000 0.5224 (  5460 PWs)   bands (ev):

    -9.5987  -9.5987  -8.3548  -8.3548   0.3655   0.3655   2.9758   2.9758
     5.4441   5.4441   5.5832   5.5832   8.4466   8.4466   8.4923   8.4923
    17.5147  17.5147  21.3208  21.3208

          k =-0.5000-0.5000 0.6966 (  5440 PWs)   bands (ev):

    -9.2868  -9.2868  -8.1348  -8.1348  -0.3381  -0.3381   2.2789   2.2789
     5.6575   5.6575   5.6982   5.6982   8.4288   8.4288   8.6108   8.6108
    17.0569  17.0569  20.9856  20.9857

     the Fermi energy is    14.2134 ev

!    total energy              =    -190.07928237 Ry
     estimated scf accuracy    <          1.1E-09 Ry
     smearing contrib. (-TS)   =       0.00000000 Ry
     internal energy E=F+TS    =    -190.07928237 Ry

     The total energy is F=E-TS. E is the sum of the following terms:
     one-electron contribution =     -14.44569968 Ry
     hartree contribution      =      32.03592565 Ry
     xc contribution           =     -43.07200183 Ry
     ewald contribution        =    -126.59915130 Ry
     one-center paw contrib.   =     -37.99835521 Ry

     convergence has been achieved in  10 iterations

     Forces acting on atoms (cartesian axes, Ry/au):

     atom    1 type  1   force =     0.00000000    0.00000000    0.00000000
     atom    2 type  1   force =     0.00000000    0.00000000   -0.00000000
     atom    3 type  2   force =     0.00157513    0.00157513    0.00000000
     atom    4 type  2   force =    -0.00157513   -0.00157513    0.00000000
     atom    5 type  2   force =    -0.00157513    0.00157513    0.00000000
     atom    6 type  2   force =     0.00157513   -0.00157513    0.00000000

     Total force =     0.004455     Total SCF correction =     0.000019


     Computing stress (Cartesian axis) and pressure

          total   stress  (Ry/bohr**3)                   (kbar)     P=       18.96
   0.00013787   0.00000000   0.00000000           20.28        0.00        0.00
   0.00000000   0.00013787   0.00000000            0.00       20.28        0.00
   0.00000000   0.00000000   0.00011090            0.00        0.00       16.31


     BFGS Geometry Optimization
     Energy error            =      2.4E-05 Ry
     Gradient error          =      1.6E-03 Ry/Bohr
     Cell gradient error     =      2.6E+00 kbar

     number of scf cycles    =   1
     number of bfgs steps    =   0

     enthalpy           new  =    -190.0375845241 Ry

     new trust radius        =       0.0022275749 bohr
     new conv_thr            =       0.0000000100 Ry

     new unit-cell volume =    323.52117 a.u.^3 (    47.94089 Ang^3 )
     density =      4.16222 g/cm^3

CELL_PARAMETERS (angstrom)
   4.220647872   0.000000000   0.000000000
   0.000000000   4.220647872   0.000000000
   0.000000000   0.000000000   2.691211721

ATOMIC_POSITIONS (angstrom)
Si               0.0000000000        0.0000000000        0.0000000000
Si               2.1103239360        2.1103239360        1.3456058606
O                1.2929006449        1.2929006449        0.0000000000
O                2.9277472270        2.9277472270        0.0000000000
O                0.8174232911        3.4032245809        1.3456058606
O                3.4032245809        0.8174232911        1.3456058606



     Writing config-only to output data dir ./SiO2.save/ :
     XML data file
     NEW-OLD atomic charge density approx. for the potential
     New effective cutoffs (rho, wfc):  400.08  100.06

     Check: negative core charge=   -0.000002

     total cpu time spent up to now is       83.4 secs

     Self-consistent Calculation

     iteration #  1     ecut=   100.00 Ry     beta= 0.70
     Davidson diagonalization with overlap
     ethr =  1.00E-06,  avg # of iterations =  2.0

     Threshold (ethr) on eigenvalues was too large:
     Diagonalizing with lowered threshold

     Davidson diagonalization with overlap
     ethr =  9.73E-09,  avg # of iterations =  3.9

     total cpu time spent up to now is       99.2 secs

     total energy              =    -190.07929920 Ry
     estimated scf accuracy    <       0.00000478 Ry

     iteration #  2     ecut=   100.00 Ry     beta= 0.70
     Davidson diagonalization with overlap
     ethr =  1.49E-08,  avg # of iterations =  2.0

     total cpu time spent up to now is      105.8 secs

     total energy              =    -190.07929989 Ry
     estimated scf accuracy    <       0.00000009 Ry

     iteration #  3     ecut=   100.00 Ry     beta= 0.70
     Davidson diagonalization with overlap
     ethr =  2.89E-10,  avg # of iterations =  2.1

     total cpu time spent up to now is      111.9 secs

     End of self-consistent calculation

          k = 0.0000 0.0000 0.0000 (  5425 PWs)   bands (ev):

   -12.1492  -8.6618  -8.6618  -8.4541  -0.5641   3.8594   3.8594   4.1209
     4.8616   5.1487   7.0671   7.0671   7.6356   9.2678   9.2678  10.1186
    15.2531  16.7228  18.4304  18.4304

          k = 0.0000 0.0000 0.1742 (  5448 PWs)   bands (ev):

   -11.9900  -8.5815  -8.5815  -8.4356  -0.5029   3.9941   3.9941   4.2960
     4.4144   4.9240   6.5234   6.5234   7.0371   9.1530   9.1530   9.9787
    15.8596  17.5704  19.1303  19.1303

          k = 0.0000 0.0000 0.3484 (  5456 PWs)   bands (ev):

   -11.5291  -8.4449  -8.3676  -8.3676  -0.3605   3.6292   4.0749   4.3777
     4.3777   4.8086   5.3391   5.3391   5.9872   8.7881   8.7881   9.5356
    16.9628  19.3224  20.0983  20.7101

          k = 0.0000 0.0000 0.5227 (  5452 PWs)   bands (ev):

   -10.8218  -8.6500  -8.1031  -8.1031  -0.1564   2.6697   3.3103   4.1627
     4.1627   4.9665   4.9665   5.1327   5.6169   8.2120   8.2120   8.7690
    17.7302  20.0717  20.6936  22.1300

          k = 0.0000 0.0000 0.6969 (  5504 PWs)   bands (ev):

    -9.9791  -9.1851  -7.9157  -7.9157   0.3260   1.2980   3.4742   3.4742
     3.6378   4.3337   5.5136   5.5136   6.6407   7.6446   7.6446   7.7495
    18.4229  19.3426  21.8803  22.5197

          k = 0.0000 0.2499 0.0000 (  5437 PWs)   bands (ev):

   -11.8362  -9.7189  -8.5105  -8.0290  -0.1267   2.5682   4.1775   5.0271
     5.0986   6.0394   6.5646   7.1977   7.6884   8.0852   9.1666   9.6713
    16.1661  17.2025  18.5791  18.6509

          k = 0.0000 0.2499 0.1742 (  5447 PWs)   bands (ev):

   -11.6823  -9.6161  -8.4410  -8.0098  -0.0266   2.6750   3.8241   4.7864
     5.3257   5.4346   6.4933   6.7291   6.9587   8.3482   9.0406   9.6323
    16.5984  17.9805  19.2331  19.2845

          k = 0.0000 0.2499 0.3484 (  5460 PWs)   bands (ev):

   -11.2388  -9.3471  -8.2635  -7.9937   0.2020   2.8901   2.9472   3.9487
     4.7464   5.5789   5.7489   6.0501   6.3483   8.4164   8.6599   9.3957
    17.3981  19.4780  20.4068  20.5936

          k = 0.0000 0.2499 0.5227 (  5480 PWs)   bands (ev):

   -10.5680  -9.0714  -8.0705  -8.0496   0.3562   2.2105   2.5087   3.4143
     4.0614   4.3772   6.0635   6.0669   6.4234   8.1126   8.2147   8.8907
    17.9807  19.7809  20.2952  21.1414

          k = 0.0000 0.2499 0.6969 (  5486 PWs)   bands (ev):

    -9.8001  -9.1826  -8.0528  -7.9891   0.5333   1.1392   2.7157   3.0969
     3.5931   3.7846   6.0825   6.3390   7.0660   7.7519   7.8204   8.2358
    18.4752  19.1234  20.4842  20.8456

          k = 0.0000-0.4999 0.0000 (  5466 PWs)   bands (ev):

   -10.9558 -10.9558  -8.1746  -8.1746   0.9987   0.9987   5.6599   5.6599
     5.7414   5.7414   6.3787   6.3787   7.4924   7.4924   9.0800   9.0800
    17.4979  17.4979  19.0247  19.0247

          k = 0.0000-0.4999 0.1742 (  5460 PWs)   bands (ev):

   -10.8192 -10.8192  -8.1337  -8.1337   1.1291   1.1291   4.4592   4.4592
     5.9983   5.9983   6.6287   6.6287   7.2707   7.2707   9.0019   9.0019
    17.9666  17.9666  19.7196  19.7196

          k = 0.0000-0.4999 0.3484 (  5462 PWs)   bands (ev):

   -10.4343 -10.4343  -8.0501  -8.0501   1.4763   1.4763   2.9838   2.9838
     5.2027   5.2027   6.8465   6.8465   7.2650   7.2650   8.7961   8.7961
    18.6775  18.6775  20.6027  20.6028

          k = 0.0000-0.4999 0.5227 (  5484 PWs)   bands (ev):

    -9.8895  -9.8895  -8.0273  -8.0273   1.5918   1.5918   2.0464   2.0464
     4.2293   4.2293   6.6646   6.6646   7.5752   7.5752   8.5858   8.5858
    18.8216  18.8216  19.9981  19.9981

          k = 0.0000-0.4999 0.6969 (  5476 PWs)   bands (ev):

    -9.4002  -9.4002  -8.1265  -8.1265   0.9689   0.9689   2.1889   2.1889
     3.7763   3.7763   6.3355   6.3355   7.8554   7.8554   8.4589   8.4589
    18.6560  18.6560  19.7226  19.7226

          k = 0.2499 0.2499 0.0000 (  5468 PWs)   bands (ev):

   -11.5439  -9.8864  -8.8334  -8.0913   0.3999   2.6505   3.8999   5.3220
     5.5400   6.2327   6.5187   7.0061   7.5993   7.6723   8.7248   9.3410
    16.5321  17.5122  18.6336  19.3577

          k = 0.2499 0.2499 0.1742 (  5451 PWs)   bands (ev):

   -11.3956  -9.7827  -8.7474  -8.0612   0.4898   2.4737   4.0048   4.8311
     5.4620   5.5217   6.5758   6.6700   6.9530   8.0819   8.6969   9.3924
    16.9399  18.1604  19.2086  19.9855

          k = 0.2499 0.2499 0.3484 (  5446 PWs)   bands (ev):

   -10.9710  -9.5107  -8.5175  -8.0118   0.6343   1.9446   3.6651   4.1314
     4.6860   5.0245   5.6360   6.4476   7.0159   8.1798   8.5743   9.2986
    17.5423  19.1078  20.2887  21.2733

          k = 0.2499 0.2499 0.5227 (  5466 PWs)   bands (ev):

   -10.3405  -9.2112  -8.2312  -8.0354   0.3861   1.5032   2.7097   3.4265
     3.8191   5.1412   5.1535   6.9339   6.9879   8.0345   8.2880   8.9608
    17.7624  18.8205  20.6179  21.8385

          k = 0.2499 0.2499 0.6969 (  5465 PWs)   bands (ev):

    -9.6550  -9.1851  -8.1211  -8.0266   0.0157   1.0343   2.6952   2.7800
     3.0932   4.9810   5.5851   7.0628   7.5148   7.7801   7.9475   8.4972
    17.8233  18.4121  20.4018  21.7662

          k = 0.2499-0.4999 0.0000 (  5466 PWs)   bands (ev):

   -10.7525 -10.7525  -8.5499  -8.5499   1.5854   1.5854   5.0799   5.0799
     5.9106   5.9106   6.8040   6.8040   7.2616   7.2616   8.6940   8.6940
    17.3154  17.3154  19.4836  19.4836

          k = 0.2499-0.4999 0.1742 (  5466 PWs)   bands (ev):

   -10.6223 -10.6223  -8.4850  -8.4850   1.5846   1.5846   4.5421   4.5421
     5.7113   5.7113   6.5894   6.5894   7.3337   7.3337   8.7729   8.7729
    17.7512  17.7512  20.0734  20.0734

          k = 0.2499-0.4999 0.3484 (  5458 PWs)   bands (ev):

   -10.2597 -10.2597  -8.3261  -8.3261   1.3757   1.3757   3.6926   3.6926
     4.7803   4.7803   6.5711   6.5711   7.5489   7.5489   8.7818   8.7818
    18.2035  18.2035  21.3036  21.3046

          k = 0.2499-0.4999 0.5227 (  5464 PWs)   bands (ev):

    -9.7625  -9.7625  -8.1747  -8.1747   0.7064   0.7064   3.1253   3.1253
     4.0678   4.0678   6.6571   6.6571   7.7744   7.7744   8.6623   8.6623
    17.9334  17.9334  21.0852  21.0852

          k = 0.2499-0.4999 0.6969 (  5452 PWs)   bands (ev):

    -9.3479  -9.3479  -8.1287  -8.1287   0.1321   0.1321   2.5681   2.5681
     4.1119   4.1119   6.6456   6.6456   7.9146   7.9146   8.5696   8.5696
    17.5930  17.5930  20.6896  20.6896

          k =-0.4999-0.4999 0.0000 (  5452 PWs)   bands (ev):

   -10.4667 -10.4667  -8.9955  -8.9955   2.3723   2.3723   4.3531   4.3531
     6.1658   6.1658   6.9460   6.9460   7.5377   7.5377   7.9342   7.9342
    17.2158  17.2158  19.9534  19.9534

          k =-0.4999-0.4999 0.1742 (  5440 PWs)   bands (ev):

   -10.3476 -10.3476  -8.9045  -8.9045   2.1303   2.1303   4.3751   4.3751
     5.9224   5.9224   6.0522   6.0522   8.0093   8.0093   8.0722   8.0722
    17.6230  17.6230  20.4622  20.4622

          k =-0.4999-0.4999 0.3484 (  5480 PWs)   bands (ev):

   -10.0236 -10.0236  -8.6603  -8.6603   1.3742   1.3742   4.0036   4.0036
     5.2918   5.2918   5.6113   5.6113   8.2065   8.2065   8.4225   8.4225
    17.9530  17.9530  21.3575  21.3575

          k =-0.4999-0.4999 0.5227 (  5460 PWs)   bands (ev):

    -9.6050  -9.6050  -8.3541  -8.3541   0.3670   0.3670   2.9743   2.9743
     5.4470   5.4470   5.5734   5.5734   8.4447   8.4447   8.4863   8.4863
    17.5256  17.5256  21.3158  21.3158

          k =-0.4999-0.4999 0.6969 (  5440 PWs)   bands (ev):

    -9.2925  -9.2925  -8.1337  -8.1337  -0.3378  -0.3378   2.2771   2.2771
     5.6476   5.6476   5.7030   5.7030   8.4197   8.4197   8.6094   8.6094
    17.0682  17.0682  20.9714  20.9714

     the Fermi energy is    14.1926 ev

!    total energy              =    -190.07929990 Ry
     estimated scf accuracy    <          7.6E-09 Ry
     smearing contrib. (-TS)   =       0.00000000 Ry
     internal energy E=F+TS    =    -190.07929990 Ry

     The total energy is F=E-TS. E is the sum of the following terms:
     one-electron contribution =     -14.47449241 Ry
     hartree contribution      =      32.04876658 Ry
     xc contribution           =     -43.07366651 Ry
     ewald contribution        =    -126.58156930 Ry
     one-center paw contrib.   =     -37.99833826 Ry

     convergence has been achieved in   3 iterations

     Forces acting on atoms (cartesian axes, Ry/au):

     atom    1 type  1   force =     0.00000000    0.00000000    0.00000000
     atom    2 type  1   force =     0.00000000    0.00000000    0.00000000
     atom    3 type  2   force =     0.00072556    0.00072556    0.00000000
     atom    4 type  2   force =    -0.00072556   -0.00072556    0.00000000
     atom    5 type  2   force =    -0.00072556    0.00072556    0.00000000
     atom    6 type  2   force =     0.00072556   -0.00072556    0.00000000

     Total force =     0.002052     Total SCF correction =     0.000101


     Computing stress (Cartesian axis) and pressure

          total   stress  (Ry/bohr**3)                   (kbar)     P=       20.23
   0.00014332   0.00000000   0.00000000           21.08        0.00        0.00
   0.00000000   0.00014332   0.00000000            0.00       21.08        0.00
   0.00000000   0.00000000   0.00012591            0.00        0.00       18.52

     Energy error            =      1.8E-05 Ry
     Gradient error          =      7.3E-04 Ry/Bohr
     Cell gradient error     =      2.1E+00 kbar

     number of scf cycles    =   2
     number of bfgs steps    =   1

     enthalpy           old  =    -190.0375845241 Ry
     enthalpy           new  =    -190.0376020812 Ry

     CASE: enthalpy          _new < enthalpy          _old

     new trust radius        =       0.0028023705 bohr
     new conv_thr            =            1.0E-10 Ry

     new unit-cell volume =    323.93247 a.u.^3 (    48.00184 Ang^3 )
     density =      4.15693 g/cm^3

CELL_PARAMETERS (angstrom)
   4.223935808   0.000000000   0.000000000
   0.000000000   4.223935808   0.000000000
   0.000000000   0.000000000   2.690439659

ATOMIC_POSITIONS (angstrom)
Si               0.0000000000        0.0000000000        0.0000000000
Si               2.1119679039        2.1119679039        1.3452198294
O                1.2949235952        1.2949235952        0.0000000000
O                2.9290122126        2.9290122126        0.0000000000
O                0.8170443087        3.4068914991        1.3452198294
O                3.4068914991        0.8170443087        1.3452198294



     Writing config-only to output data dir ./SiO2.save/ :
     XML data file
     NEW-OLD atomic charge density approx. for the potential
     New effective cutoffs (rho, wfc):  400.00  100.11

     Check: negative core charge=   -0.000002

     total cpu time spent up to now is      119.2 secs

     Self-consistent Calculation

     iteration #  1     ecut=   100.00 Ry     beta= 0.70
     Davidson diagonalization with overlap
     ethr =  1.00E-06,  avg # of iterations =  3.0

     Threshold (ethr) on eigenvalues was too large:
     Diagonalizing with lowered threshold

     Davidson diagonalization with overlap
     ethr =  1.52E-08,  avg # of iterations =  3.3

     total cpu time spent up to now is      135.5 secs

     total energy              =    -190.07935925 Ry
     estimated scf accuracy    <       0.00000687 Ry

     iteration #  2     ecut=   100.00 Ry     beta= 0.70
     Davidson diagonalization with overlap
     ethr =  2.15E-08,  avg # of iterations =  2.0

     total cpu time spent up to now is      142.3 secs

     total energy              =    -190.07936031 Ry
     estimated scf accuracy    <       0.00000071 Ry

     iteration #  3     ecut=   100.00 Ry     beta= 0.70
     Davidson diagonalization with overlap
     ethr =  2.22E-09,  avg # of iterations =  2.0

     total cpu time spent up to now is      149.2 secs

     total energy              =    -190.07936044 Ry
     estimated scf accuracy    <       0.00000008 Ry

     iteration #  4     ecut=   100.00 Ry     beta= 0.70
     Davidson diagonalization with overlap
     ethr =  2.50E-10,  avg # of iterations =  2.0

     total cpu time spent up to now is      155.8 secs

     total energy              =    -190.07936046 Ry
     estimated scf accuracy    <          4.3E-09 Ry

     iteration #  5     ecut=   100.00 Ry     beta= 0.70
     Davidson diagonalization with overlap
     ethr =  1.34E-11,  avg # of iterations =  2.1

     total cpu time spent up to now is      162.8 secs

     total energy              =    -190.07936046 Ry
     estimated scf accuracy    <          3.0E-10 Ry

     iteration #  6     ecut=   100.00 Ry     beta= 0.70
     Davidson diagonalization with overlap
     ethr =  9.47E-13,  avg # of iterations =  2.2

     total cpu time spent up to now is      169.9 secs

     End of self-consistent calculation

          k = 0.0000 0.0000 0.0000 (  5425 PWs)   bands (ev):

   -12.1616  -8.6780  -8.6780  -8.4868  -0.5645   3.8444   3.8444   4.1124
     4.8508   5.1241   7.0491   7.0491   7.6061   9.2460   9.2460  10.0936
    15.2197  16.7027  18.4158  18.4158

          k = 0.0000 0.0000 0.1743 (  5448 PWs)   bands (ev):

   -12.0025  -8.5975  -8.5975  -8.4673  -0.5037   3.9794   3.9794   4.2875
     4.4016   4.9005   6.5052   6.5052   7.0072   9.1316   9.1316   9.9551
    15.8274  17.5502  19.1147  19.1147

          k = 0.0000 0.0000 0.3485 (  5456 PWs)   bands (ev):

   -11.5418  -8.4734  -8.3833  -8.3833  -0.3637   3.6132   4.0515   4.3636
     4.3636   4.8000   5.3204   5.3204   5.9599   8.7674   8.7674   9.5157
    16.9334  19.2978  20.0763  20.6890

          k = 0.0000 0.0000 0.5228 (  5452 PWs)   bands (ev):

   -10.8350  -8.6733  -8.1183  -8.1183  -0.1662   2.6450   3.2934   4.1425
     4.1425   4.9546   4.9546   5.1113   5.6080   8.1915   8.1915   8.7534
    17.7007  20.0359  20.6644  22.0868

          k = 0.0000 0.0000 0.6971 (  5504 PWs)   bands (ev):

    -9.9939  -9.2033  -7.9305  -7.9305   0.3080   1.2749   3.4536   3.4536
     3.6215   4.3162   5.5040   5.5040   6.6308   7.6226   7.6226   7.7376
    18.3890  19.3051  21.8508  22.4497

          k = 0.0000 0.2497 0.0000 (  5437 PWs)   bands (ev):

   -11.8496  -9.7389  -8.5277  -8.0535  -0.1313   2.5515   4.1629   5.0179
     5.0867   6.0227   6.5468   7.1784   7.6621   8.0638   9.1433   9.6465
    16.1328  17.1791  18.5621  18.6309

          k = 0.0000 0.2497 0.1743 (  5447 PWs)   bands (ev):

   -11.6957  -9.6361  -8.4580  -8.0334  -0.0313   2.6585   3.8107   4.7749
     5.3097   5.4222   6.4738   6.7093   6.9348   8.3253   9.0178   9.6082
    16.5661  17.9568  19.2149  19.2640

          k = 0.0000 0.2497 0.3485 (  5460 PWs)   bands (ev):

   -11.2524  -9.3673  -8.2799  -8.0144   0.1960   2.8737   2.9328   3.9312
     4.7327   5.5562   5.7339   6.0326   6.3301   8.3938   8.6381   9.3738
    17.3671  19.4498  20.3867  20.5654

          k = 0.0000 0.2497 0.5228 (  5480 PWs)   bands (ev):

   -10.5822  -9.0922  -8.0860  -8.0654   0.3448   2.1905   2.4950   3.3991
     4.0430   4.3553   6.0490   6.0512   6.4107   8.0909   8.1924   8.8719
    17.9498  19.7471  20.2633  21.0918

          k = 0.0000 0.2497 0.6971 (  5486 PWs)   bands (ev):

    -9.8159  -9.2017  -8.0660  -8.0033   0.5149   1.1181   2.7034   3.0821
     3.5732   3.7652   6.0705   6.3280   7.0492   7.7305   7.7990   8.2184
    18.4431  19.0899  20.4412  20.7953

          k = 0.0000-0.4995 0.0000 (  5466 PWs)   bands (ev):

   -10.9720 -10.9720  -8.1949  -8.1949   0.9867   0.9867   5.6455   5.6455
     5.7268   5.7268   6.3663   6.3663   7.4700   7.4700   9.0537   9.0537
    17.4654  17.4654  19.0065  19.0065

          k = 0.0000-0.4995 0.1743 (  5460 PWs)   bands (ev):

   -10.8354 -10.8354  -8.1535  -8.1535   1.1173   1.1173   4.4456   4.4456
     5.9824   5.9824   6.6160   6.6160   7.2471   7.2471   8.9763   8.9763
    17.9340  17.9340  19.7016  19.7016

          k = 0.0000-0.4995 0.3485 (  5462 PWs)   bands (ev):

   -10.4507 -10.4507  -8.0684  -8.0684   1.4652   1.4652   2.9684   2.9684
     5.1852   5.1852   6.8329   6.8329   7.2421   7.2421   8.7721   8.7721
    18.6434  18.6434  20.5669  20.5669

          k = 0.0000-0.4995 0.5228 (  5484 PWs)   bands (ev):

    -9.9064  -9.9064  -8.0431  -8.0431   1.5750   1.5750   2.0351   2.0351
     4.2094   4.2094   6.6520   6.6520   7.5530   7.5530   8.5635   8.5635
    18.7889  18.7889  19.9599  19.9599

          k = 0.0000-0.4995 0.6971 (  5476 PWs)   bands (ev):

    -9.4188  -9.4188  -8.1392  -8.1392   0.9480   0.9480   2.1804   2.1804
     3.7548   3.7548   6.3242   6.3242   7.8327   7.8327   8.4382   8.4382
    18.6273  18.6273  19.6781  19.6781

          k = 0.2497 0.2497 0.0000 (  5468 PWs)   bands (ev):

   -11.5584  -9.9080  -8.8483  -8.1131   0.3917   2.6352   3.8818   5.3090
     5.5305   6.2197   6.4994   6.9887   7.5751   7.6497   8.7033   9.3191
    16.4996  17.4824  18.6100  19.3394

          k = 0.2497 0.2497 0.1743 (  5451 PWs)   bands (ev):

   -11.4100  -9.8041  -8.7622  -8.0823   0.4820   2.4598   3.9870   4.8153
     5.4450   5.5129   6.5581   6.6494   6.9362   8.0554   8.6758   9.3698
    16.9080  18.1310  19.1861  19.9675

          k = 0.2497 0.2497 0.3485 (  5446 PWs)   bands (ev):

   -10.9856  -9.5319  -8.5320  -8.0309   0.6267   1.9324   3.6456   4.1149
     4.6672   5.0128   5.6135   6.4322   7.0005   8.1523   8.5540   9.2758
    17.5123  19.0789  20.2618  21.2462

          k = 0.2497 0.2497 0.5228 (  5466 PWs)   bands (ev):

   -10.3557  -9.2321  -8.2453  -8.0511   0.3748   1.4912   2.6893   3.4117
     3.8026   5.1162   5.1405   6.9192   6.9732   8.0076   8.2674   8.9397
    17.7341  18.7900  20.5766  21.7903

          k = 0.2497 0.2497 0.6971 (  5465 PWs)   bands (ev):

    -9.6718  -9.2048  -8.1339  -8.0405   0.0015   1.0160   2.6804   2.7650
     3.0775   4.9566   5.5746   7.0480   7.4963   7.7534   7.9281   8.4782
    17.7960  18.3793  20.3532  21.7218

          k = 0.2497-0.4995 0.0000 (  5466 PWs)   bands (ev):

   -10.7701 -10.7701  -8.5675  -8.5675   1.5721   1.5721   5.0619   5.0619
     5.8946   5.8946   6.7925   6.7925   7.2412   7.2412   8.6723   8.6723
    17.2808  17.2808  19.4614  19.4614

          k = 0.2497-0.4995 0.1743 (  5466 PWs)   bands (ev):

   -10.6399 -10.6399  -8.5023  -8.5023   1.5723   1.5723   4.5254   4.5254
     5.6951   5.6951   6.5735   6.5735   7.3146   7.3146   8.7505   8.7505
    17.7178  17.7178  20.0524  20.0524

          k = 0.2497-0.4995 0.3485 (  5458 PWs)   bands (ev):

   -10.2773 -10.2773  -8.3426  -8.3426   1.3655   1.3655   3.6745   3.6745
     4.7651   4.7651   6.5511   6.5511   7.5298   7.5298   8.7583   8.7583
    18.1737  18.1737  21.2796  21.2803

          k = 0.2497-0.4995 0.5228 (  5464 PWs)   bands (ev):

    -9.7805  -9.7805  -8.1895  -8.1895   0.6953   0.6953   3.1105   3.1105
     4.0488   4.0488   6.6387   6.6387   7.7533   7.7533   8.6390   8.6390
    17.9062  17.9062  21.0424  21.0424

          k = 0.2497-0.4995 0.6971 (  5452 PWs)   bands (ev):

    -9.3669  -9.3669  -8.1416  -8.1416   0.1188   0.1188   2.5547   2.5547
     4.0922   4.0922   6.6293   6.6293   7.8899   7.8899   8.5481   8.5481
    17.5663  17.5663  20.6465  20.6465

          k =-0.4995-0.4995 0.0000 (  5452 PWs)   bands (ev):

   -10.4872 -10.4872  -9.0092  -9.0092   2.3589   2.3589   4.3315   4.3315
     6.1470   6.1470   6.9292   6.9292   7.5299   7.5299   7.9130   7.9130
    17.1797  17.1797  19.9271  19.9271

          k =-0.4995-0.4995 0.1743 (  5440 PWs)   bands (ev):

   -10.3680 -10.3680  -8.9181  -8.9181   2.1185   2.1185   4.3541   4.3541
     5.9004   5.9004   6.0410   6.0410   7.9882   7.9882   8.0570   8.0570
    17.5891  17.5891  20.4368  20.4368

          k =-0.4995-0.4995 0.3485 (  5480 PWs)   bands (ev):

   -10.0436 -10.0436  -8.6737  -8.6737   1.3643   1.3643   3.9877   3.9877
     5.2786   5.2786   5.5844   5.5844   8.1860   8.1860   8.4017   8.4017
    17.9249  17.9249  21.3342  21.3342

          k =-0.4995-0.4995 0.5228 (  5460 PWs)   bands (ev):

    -9.6246  -9.6246  -8.3673  -8.3673   0.3571   0.3571   2.9616   2.9616
     5.4335   5.4335   5.5444   5.5444   8.4249   8.4249   8.4605   8.4605
    17.5017  17.5017  21.2802  21.2802

          k =-0.4995-0.4995 0.6971 (  5440 PWs)   bands (ev):

    -9.3119  -9.3119  -8.1467  -8.1467  -0.3484  -0.3484   2.2649   2.2649
     5.6181   5.6181   5.6919   5.6919   8.3899   8.3899   8.5901   8.5901
    17.0453  17.0453  20.9231  20.9232

     the Fermi energy is    14.1370 ev

!    total energy              =    -190.07936046 Ry
     estimated scf accuracy    <          4.2E-11 Ry
     smearing contrib. (-TS)   =       0.00000000 Ry
     internal energy E=F+TS    =    -190.07936046 Ry

     The total energy is F=E-TS. E is the sum of the following terms:
     one-electron contribution =     -14.59042338 Ry
     hartree contribution      =      32.08399048 Ry
     xc contribution           =     -43.06976188 Ry
     ewald contribution        =    -126.50461086 Ry
     one-center paw contrib.   =     -37.99855482 Ry

     convergence has been achieved in   6 iterations

     Forces acting on atoms (cartesian axes, Ry/au):

     atom    1 type  1   force =     0.00000000    0.00000000    0.00000000
     atom    2 type  1   force =     0.00000000    0.00000000   -0.00000000
     atom    3 type  2   force =    -0.00009450   -0.00009450   -0.00000000
     atom    4 type  2   force =     0.00009450    0.00009450   -0.00000000
     atom    5 type  2   force =     0.00009450   -0.00009450    0.00000000
     atom    6 type  2   force =    -0.00009450    0.00009450   -0.00000000

     Total force =     0.000267     Total SCF correction =     0.000006


     Computing stress (Cartesian axis) and pressure

          total   stress  (Ry/bohr**3)                   (kbar)     P=       18.11
   0.00012436   0.00000000   0.00000000           18.29        0.00        0.00
   0.00000000   0.00012436   0.00000000            0.00       18.29        0.00
   0.00000000   0.00000000   0.00012054            0.00        0.00       17.73

     Energy error            =      7.5E-06 Ry
     Gradient error          =      9.4E-05 Ry/Bohr
     Cell gradient error     =      1.2E+00 kbar

     number of scf cycles    =   3
     number of bfgs steps    =   2

     enthalpy           old  =    -190.0376020812 Ry
     enthalpy           new  =    -190.0376096305 Ry

     CASE: enthalpy          _new < enthalpy          _old

     new trust radius        =       0.0005262685 bohr
     new conv_thr            =            1.0E-10 Ry

     new unit-cell volume =    323.81166 a.u.^3 (    47.98394 Ang^3 )
     density =      4.15848 g/cm^3

CELL_PARAMETERS (angstrom)
   4.223456840   0.000000000   0.000000000
   0.000000000   4.223456840   0.000000000
   0.000000000   0.000000000   2.690046314

ATOMIC_POSITIONS (angstrom)
Si               0.0000000000        0.0000000000        0.0000000000
Si               2.1117284200        2.1117284200        1.3450231570
O                1.2946707766        1.2946707766       -0.0000000000
O                2.9287860635        2.9287860635        0.0000000000
O                0.8170576435        3.4063991966        1.3450231570
O                3.4063991966        0.8170576435        1.3450231570



     Writing config-only to output data dir ./SiO2.save/ :
     XML data file
     NEW-OLD atomic charge density approx. for the potential
     New effective cutoffs (rho, wfc):  400.11  100.14

     Check: negative core charge=   -0.000002

     total cpu time spent up to now is      177.2 secs

     Self-consistent Calculation

     iteration #  1     ecut=   100.00 Ry     beta= 0.70
     Davidson diagonalization with overlap
     ethr =  1.00E-06,  avg # of iterations =  2.0

     Threshold (ethr) on eigenvalues was too large:
     Diagonalizing with lowered threshold

     Davidson diagonalization with overlap
     ethr =  1.51E-10,  avg # of iterations =  4.5

     total cpu time spent up to now is      194.9 secs

     total energy              =    -190.07934527 Ry
     estimated scf accuracy    <       0.00000008 Ry

     iteration #  2     ecut=   100.00 Ry     beta= 0.70
     Davidson diagonalization with overlap
     ethr =  2.39E-10,  avg # of iterations =  3.0

     total cpu time spent up to now is      202.7 secs

     total energy              =    -190.07934529 Ry
     estimated scf accuracy    <       0.00000004 Ry

     iteration #  3     ecut=   100.00 Ry     beta= 0.70
     Davidson diagonalization with overlap
     ethr =  1.24E-10,  avg # of iterations =  2.0

     total cpu time spent up to now is      209.0 secs

     total energy              =    -190.07934529 Ry
     estimated scf accuracy    <          1.3E-09 Ry

     iteration #  4     ecut=   100.00 Ry     beta= 0.70
     Davidson diagonalization with overlap
     ethr =  3.95E-12,  avg # of iterations =  2.4

     total cpu time spent up to now is      216.5 secs

     End of self-consistent calculation

          k = 0.0000 0.0000 0.0000 (  5425 PWs)   bands (ev):

   -12.1593  -8.6743  -8.6743  -8.4817  -0.5623   3.8476   3.8476   4.1149
     4.8561   5.1289   7.0546   7.0546   7.6132   9.2516   9.2516  10.0998
    15.2315  16.7116  18.4249  18.4249

          k = 0.0000 0.0000 0.1743 (  5448 PWs)   bands (ev):

   -12.0001  -8.5938  -8.5938  -8.4622  -0.5014   3.9826   3.9826   4.2901
     4.4067   4.9053   6.5104   6.5104   7.0141   9.1371   9.1371   9.9612
    15.8388  17.5595  19.1240  19.1240

          k = 0.0000 0.0000 0.3486 (  5456 PWs)   bands (ev):

   -11.5392  -8.4683  -8.3795  -8.3795  -0.3610   3.6177   4.0566   4.3669
     4.3669   4.8028   5.3251   5.3251   5.9661   8.7728   8.7728   9.5213
    16.9439  19.3085  20.0847  20.6989

          k = 0.0000 0.0000 0.5229 (  5452 PWs)   bands (ev):

   -10.8320  -8.6685  -8.1143  -8.1143  -0.1628   2.6502   3.2974   4.1467
     4.1467   4.9580   4.9580   5.1163   5.6112   8.1967   8.1967   8.7585
    17.7105  20.0474  20.6735  22.0978

          k = 0.0000 0.0000 0.6972 (  5504 PWs)   bands (ev):

    -9.9904  -9.1991  -7.9263  -7.9263   0.3122   1.2797   3.4575   3.4575
     3.6254   4.3205   5.5075   5.5075   6.6345   7.6277   7.6277   7.7420
    18.3990  19.3158  21.8599  22.4622

          k = 0.0000 0.2498 0.0000 (  5437 PWs)   bands (ev):

   -11.8472  -9.7353  -8.5239  -8.0489  -0.1289   2.5548   4.1663   5.0209
     5.0922   6.0269   6.5525   7.1841   7.6686   8.0691   9.1490   9.6526
    16.1443  17.1885  18.5713  18.6401

          k = 0.0000 0.2498 0.1743 (  5447 PWs)   bands (ev):

   -11.6932  -9.6324  -8.4541  -8.0287  -0.0288   2.6618   3.8148   4.7785
     5.3145   5.4262   6.4788   6.7147   6.9408   8.3308   9.0234   9.6142
    16.5774  17.9668  19.2243  19.2734

          k = 0.0000 0.2498 0.3486 (  5460 PWs)   bands (ev):

   -11.2496  -9.3634  -8.2759  -8.0099   0.1990   2.8773   2.9368   3.9361
     4.7365   5.5615   5.7380   6.0368   6.3347   8.3991   8.6435   9.3796
    17.3778  19.4610  20.3952  20.5752

          k = 0.0000 0.2498 0.5229 (  5480 PWs)   bands (ev):

   -10.5790  -9.0879  -8.0818  -8.0611   0.3485   2.1950   2.4985   3.4032
     4.0471   4.3598   6.0530   6.0552   6.4145   8.0962   8.1977   8.8772
    17.9598  19.7579  20.2721  21.1023

          k = 0.0000 0.2498 0.6972 (  5486 PWs)   bands (ev):

    -9.8122  -9.1975  -8.0620  -7.9991   0.5191   1.1226   2.7068   3.0859
     3.5771   3.7692   6.0742   6.3317   7.0537   7.7356   7.8041   8.2233
    18.4528  19.0999  20.4509  20.8057

          k = 0.0000-0.4996 0.0000 (  5466 PWs)   bands (ev):

   -10.9691 -10.9691  -8.1907  -8.1907   0.9896   0.9896   5.6497   5.6497
     5.7324   5.7324   6.3700   6.3700   7.4760   7.4760   9.0596   9.0596
    17.4767  17.4767  19.0157  19.0157

          k = 0.0000-0.4996 0.1743 (  5460 PWs)   bands (ev):

   -10.8324 -10.8324  -8.1493  -8.1493   1.1202   1.1202   4.4504   4.4504
     5.9868   5.9868   6.6203   6.6203   7.2527   7.2527   8.9822   8.9822
    17.9455  17.9455  19.7110  19.7110

          k = 0.0000-0.4996 0.3486 (  5462 PWs)   bands (ev):

   -10.4474 -10.4474  -8.0641  -8.0641   1.4683   1.4683   2.9729   2.9729
     5.1897   5.1897   6.8370   6.8370   7.2472   7.2472   8.7778   8.7778
    18.6547  18.6547  20.5756  20.5756

          k = 0.0000-0.4996 0.5229 (  5484 PWs)   bands (ev):

    -9.9028  -9.9028  -8.0389  -8.0389   1.5795   1.5795   2.0382   2.0382
     4.2137   4.2137   6.6560   6.6560   7.5580   7.5580   8.5689   8.5689
    18.7991  18.7991  19.9688  19.9688

          k = 0.0000-0.4996 0.6972 (  5476 PWs)   bands (ev):

    -9.4147  -9.4147  -8.1352  -8.1352   0.9524   0.9524   2.1835   2.1835
     3.7590   3.7590   6.3279   6.3279   7.8378   7.8378   8.4434   8.4434
    18.6364  18.6364  19.6877  19.6877

          k = 0.2498 0.2498 0.0000 (  5468 PWs)   bands (ev):

   -11.5558  -9.9043  -8.8448  -8.1087   0.3945   2.6390   3.8852   5.3145
     5.5335   6.2238   6.5054   6.9942   7.5813   7.6553   8.7084   9.3249
    16.5107  17.4931  18.6191  19.3490

          k = 0.2498 0.2498 0.1743 (  5451 PWs)   bands (ev):

   -11.4073  -9.8004  -8.7587  -8.0780   0.4848   2.4636   3.9905   4.8204
     5.4504   5.5162   6.5630   6.6548   6.9411   8.0614   8.6809   9.3756
    16.9191  18.1420  19.1951  19.9772

          k = 0.2498 0.2498 0.3486 (  5446 PWs)   bands (ev):

   -10.9827  -9.5279  -8.5283  -8.0265   0.6300   1.9360   3.6505   4.1187
     4.6722   5.0166   5.6186   6.4362   7.0049   8.1582   8.5591   9.2815
    17.5229  19.0895  20.2711  21.2557

          k = 0.2498 0.2498 0.5229 (  5466 PWs)   bands (ev):

   -10.3524  -9.2279  -8.2414  -8.0469   0.3786   1.4948   2.6936   3.4154
     3.8067   5.1211   5.1441   6.9233   6.9773   8.0133   8.2725   8.9452
    17.7437  18.7995  20.5872  21.8002

          k = 0.2498 0.2498 0.6972 (  5465 PWs)   bands (ev):

    -9.6679  -9.2004  -8.1299  -8.0364   0.0052   1.0203   2.6842   2.7683
     3.0811   4.9614   5.5781   7.0521   7.5010   7.7590   7.9330   8.4833
    17.8050  18.3886  20.3643  21.7305

          k = 0.2498-0.4996 0.0000 (  5466 PWs)   bands (ev):

   -10.7670 -10.7670  -8.5637  -8.5637   1.5754   1.5754   5.0661   5.0661
     5.9004   5.9004   6.7964   6.7964   7.2470   7.2470   8.6777   8.6777
    17.2922  17.2922  19.4711  19.4711

          k = 0.2498-0.4996 0.1743 (  5466 PWs)   bands (ev):

   -10.6368 -10.6368  -8.4985  -8.4985   1.5757   1.5757   4.5300   4.5300
     5.6999   5.6999   6.5784   6.5784   7.3194   7.3194   8.7560   8.7560
    17.7291  17.7291  20.0621  20.0621

          k = 0.2498-0.4996 0.3486 (  5458 PWs)   bands (ev):

   -10.2739 -10.2739  -8.3386  -8.3386   1.3691   1.3691   3.6789   3.6789
     4.7694   4.7694   6.5559   6.5559   7.5345   7.5345   8.7639   8.7639
    18.1842  18.1842  21.2886  21.2892

          k = 0.2498-0.4996 0.5229 (  5464 PWs)   bands (ev):

    -9.7768  -9.7768  -8.1855  -8.1855   0.6989   0.6989   3.1142   3.1142
     4.0530   4.0530   6.6431   6.6431   7.7582   7.7582   8.6444   8.6444
    17.9155  17.9155  21.0521  21.0521

          k = 0.2498-0.4996 0.6972 (  5452 PWs)   bands (ev):

    -9.3627  -9.3627  -8.1376  -8.1376   0.1224   0.1224   2.5580   2.5580
     4.0965   4.0965   6.6334   6.6334   7.8953   7.8953   8.5533   8.5533
    17.5751  17.5751  20.6559  20.6559

          k =-0.4996-0.4996 0.0000 (  5452 PWs)   bands (ev):

   -10.4838 -10.4838  -9.0059  -9.0059   2.3628   2.3628   4.3354   4.3354
     6.1530   6.1530   6.9346   6.9346   7.5342   7.5342   7.9176   7.9176
    17.1912  17.1912  19.9373  19.9373

          k =-0.4996-0.4996 0.1743 (  5440 PWs)   bands (ev):

   -10.3645 -10.3645  -8.9148  -8.9148   2.1225   2.1225   4.3581   4.3581
     5.9063   5.9063   6.0455   6.0455   7.9929   7.9929   8.0620   8.0620
    17.6004  17.6004  20.4470  20.4470

          k =-0.4996-0.4996 0.3486 (  5480 PWs)   bands (ev):

   -10.0399 -10.0399  -8.6702  -8.6702   1.3682   1.3682   3.9917   3.9917
     5.2824   5.2824   5.5900   5.5900   8.1907   8.1907   8.4070   8.4070
    17.9353  17.9353  21.3435  21.3435

          k =-0.4996-0.4996 0.5229 (  5460 PWs)   bands (ev):

    -9.6207  -9.6207  -8.3635  -8.3635   0.3607   0.3607   2.9651   2.9651
     5.4372   5.4372   5.5499   5.5499   8.4298   8.4298   8.4662   8.4662
    17.5107  17.5107  21.2891  21.2891

          k =-0.4996-0.4996 0.6972 (  5440 PWs)   bands (ev):

    -9.3077  -9.3077  -8.1427  -8.1427  -0.3451  -0.3451   2.2679   2.2679
     5.6235   5.6235   5.6955   5.6955   8.3959   8.3959   8.5951   8.5951
    17.0539  17.0539  20.9331  20.9331

     the Fermi energy is    14.1470 ev

!    total energy              =    -190.07934529 Ry
     estimated scf accuracy    <          6.8E-11 Ry
     smearing contrib. (-TS)   =       0.00000000 Ry
     internal energy E=F+TS    =    -190.07934529 Ry

     The total energy is F=E-TS. E is the sum of the following terms:
     one-electron contribution =     -14.56483341 Ry
     hartree contribution      =      32.07720710 Ry
     xc contribution           =     -43.07141945 Ry
     ewald contribution        =    -126.52181595 Ry
     one-center paw contrib.   =     -37.99848358 Ry

     convergence has been achieved in   4 iterations

     Forces acting on atoms (cartesian axes, Ry/au):

     atom    1 type  1   force =     0.00000000    0.00000000    0.00000000
     atom    2 type  1   force =     0.00000000    0.00000000    0.00000000
     atom    3 type  2   force =    -0.00003125   -0.00003125    0.00000000
     atom    4 type  2   force =     0.00003125    0.00003125   -0.00000000
     atom    5 type  2   force =     0.00003125   -0.00003125    0.00000000
     atom    6 type  2   force =    -0.00003125    0.00003125   -0.00000000

     Total force =     0.000088     Total SCF correction =     0.000006


     Computing stress (Cartesian axis) and pressure

          total   stress  (Ry/bohr**3)                   (kbar)     P=       19.09
   0.00012966   0.00000000   0.00000000           19.07        0.00        0.00
   0.00000000   0.00012966   0.00000000            0.00       19.07        0.00
   0.00000000   0.00000000   0.00013002            0.00        0.00       19.13

     Energy error            =      4.0E-07 Ry
     Gradient error          =      3.1E-05 Ry/Bohr
     Cell gradient error     =      1.7E-01 kbar

     bfgs converged in   4 scf cycles and   3 bfgs steps
     (criteria: energy <  1.0E-04 Ry, force <  1.0E-03 Ry/Bohr, cell <  5.0E-01 kbar)

     End of BFGS Geometry Optimization

     Final enthalpy           =    -190.0376100317 Ry

     File ./SiO2.bfgs deleted, as requested
Begin final coordinates
     new unit-cell volume =    323.81166 a.u.^3 (    47.98394 Ang^3 )
     density =      4.15848 g/cm^3

CELL_PARAMETERS (angstrom)
   4.223456840   0.000000000   0.000000000
   0.000000000   4.223456840   0.000000000
   0.000000000   0.000000000   2.690046314

ATOMIC_POSITIONS (angstrom)
Si               0.0000000000        0.0000000000        0.0000000000
Si               2.1117284200        2.1117284200        1.3450231570
O                1.2946707766        1.2946707766       -0.0000000000
O                2.9287860635        2.9287860635        0.0000000000
O                0.8170576435        3.4063991966        1.3450231570
O                3.4063991966        0.8170576435        1.3450231570
End final coordinates



     Writing config-only to output data dir ./SiO2.save/ :
     XML data file

     Final scf calculation at the relaxed structure.
     The G-vectors are recalculated for the final unit cell
     Results may differ from those at the preceding step.

     G-vector sticks info
     --------------------
     sticks:   dense  smooth     PW     G-vecs:    dense   smooth      PW
     Sum        2025    2025    593                43729    43729    6897

     Using Slab Decomposition



     bravais-lattice index     =            0
     lattice parameter (alat)  =       7.9741  a.u.
     unit-cell volume          =     323.8117 (a.u.)^3
     number of atoms/cell      =            6
     number of atomic types    =            2
     number of electrons       =        32.00
     number of Kohn-Sham states=           20
     kinetic-energy cutoff     =     100.0000  Ry
     charge density cutoff     =     400.0000  Ry
     scf convergence threshold =      1.0E-10
     mixing beta               =       0.7000
     number of iterations used =            8  plain     mixing
     press convergence thresh. =      5.0E-01
     Exchange-correlation= SLA  PW   PBX  PBC
                           (   1   4   3   4   0   0   0)

     celldm(1)=   7.974077  celldm(2)=   0.000000  celldm(3)=   0.000000
     celldm(4)=   0.000000  celldm(5)=   0.000000  celldm(6)=   0.000000

     crystal axes: (cart. coord. in units of alat)
               a(1) = (   1.000890   0.000000   0.000000 )  
               a(2) = (   0.000000   1.000890   0.000000 )  
               a(3) = (   0.000000   0.000000   0.637497 )  

     reciprocal axes: (cart. coord. in units 2 pi/alat)
               b(1) = (  0.999110  0.000000  0.000000 )  
               b(2) = (  0.000000  0.999110  0.000000 )  
               b(3) = (  0.000000  0.000000  1.568635 )  


     PseudoPot. # 1 for Si read from file:
     /home/yluo/ASE/05b_ev/ase/src/Si.pbe-n-rrkjus_psl.1.0.0.UPF
     MD5 check sum: 0b0bb1205258b0d07b9f9672cf965d36
     Pseudo is Ultrasoft + core correction, Zval =  4.0
     Generated using "atomic" code by A. Dal Corso  v.5.1
     Using radial grid of 1141 points,  6 beta functions with: 
                l(1) =   0
                l(2) =   0
                l(3) =   1
                l(4) =   1
                l(5) =   2
                l(6) =   2
     Q(r) pseudized with 0 coefficients 


     PseudoPot. # 2 for O  read from file:
     /home/yluo/ASE/05b_ev/ase/src/O.pbe-n-kjpaw_psl.0.1.UPF
     MD5 check sum: 0234752ac141de4415c5fc33072bef88
     Pseudo is Projector augmented-wave + core cor, Zval =  6.0
     Generated using "atomic" code by A. Dal Corso  v.5.0.99 svn rev. 10869
     Shape of augmentation charge: BESSEL
     Using radial grid of 1095 points,  4 beta functions with: 
                l(1) =   0
                l(2) =   0
                l(3) =   1
                l(4) =   1
     Q(r) pseudized with 0 coefficients 


     atomic species   valence    mass     pseudopotential
     Si                4.00    28.08500     Si( 1.00)
     O                 6.00    15.99900     O ( 1.00)

     16 Sym. Ops., with inversion, found ( 8 have fractional translation)



   Cartesian axes

     site n.     atom                  positions (alat units)
         1        Si     tau(   1) = (   0.0000000   0.0000000   0.0000000  )
         2        Si     tau(   2) = (   0.5004452   0.5004452   0.3187485  )
         3        O      tau(   3) = (   0.3068158   0.3068158  -0.0000000  )
         4        O      tau(   4) = (   0.6940745   0.6940745   0.0000000  )
         5        O      tau(   5) = (   0.1936293   0.8072610   0.3187485  )
         6        O      tau(   6) = (   0.8072610   0.1936293   0.3187485  )

     number of k points=    30  Marzari-Vanderbilt smearing, width (Ry)=  0.0050
                       cart. coord. in units 2pi/alat
        k(    1) = (   0.0000000   0.0000000   0.0000000), wk =   0.0138889
        k(    2) = (   0.0000000   0.0000000   0.1742927), wk =   0.0277778
        k(    3) = (   0.0000000   0.0000000   0.3485855), wk =   0.0277778
        k(    4) = (   0.0000000   0.0000000   0.5228782), wk =   0.0277778
        k(    5) = (   0.0000000   0.0000000   0.6971710), wk =   0.0277778
        k(    6) = (   0.0000000   0.2497776   0.0000000), wk =   0.0555556
        k(    7) = (   0.0000000   0.2497776   0.1742927), wk =   0.1111111
        k(    8) = (   0.0000000   0.2497776   0.3485855), wk =   0.1111111
        k(    9) = (   0.0000000   0.2497776   0.5228782), wk =   0.1111111
        k(   10) = (   0.0000000   0.2497776   0.6971710), wk =   0.1111111
        k(   11) = (   0.0000000  -0.4995552   0.0000000), wk =   0.0277778
        k(   12) = (   0.0000000  -0.4995552   0.1742927), wk =   0.0555556
        k(   13) = (   0.0000000  -0.4995552   0.3485855), wk =   0.0555556
        k(   14) = (   0.0000000  -0.4995552   0.5228782), wk =   0.0555556
        k(   15) = (   0.0000000  -0.4995552   0.6971710), wk =   0.0555556
        k(   16) = (   0.2497776   0.2497776   0.0000000), wk =   0.0555556
        k(   17) = (   0.2497776   0.2497776   0.1742927), wk =   0.1111111
        k(   18) = (   0.2497776   0.2497776   0.3485855), wk =   0.1111111
        k(   19) = (   0.2497776   0.2497776   0.5228782), wk =   0.1111111
        k(   20) = (   0.2497776   0.2497776   0.6971710), wk =   0.1111111
        k(   21) = (   0.2497776  -0.4995552   0.0000000), wk =   0.0555556
        k(   22) = (   0.2497776  -0.4995552   0.1742927), wk =   0.1111111
        k(   23) = (   0.2497776  -0.4995552   0.3485855), wk =   0.1111111
        k(   24) = (   0.2497776  -0.4995552   0.5228782), wk =   0.1111111
        k(   25) = (   0.2497776  -0.4995552   0.6971710), wk =   0.1111111
        k(   26) = (  -0.4995552  -0.4995552   0.0000000), wk =   0.0138889
        k(   27) = (  -0.4995552  -0.4995552   0.1742927), wk =   0.0277778
        k(   28) = (  -0.4995552  -0.4995552   0.3485855), wk =   0.0277778
        k(   29) = (  -0.4995552  -0.4995552   0.5228782), wk =   0.0277778
        k(   30) = (  -0.4995552  -0.4995552   0.6971710), wk =   0.0277778

     Dense  grid:    43729 G-vectors     FFT dimensions: (  54,  54,  36)

     Estimated max dynamical RAM per process >     225.33 MB

     Check: negative core charge=   -0.000002

     Initial potential from superposition of free atoms

     starting charge      31.9989, renormalised to      32.0000
     Starting wfcs are   24 randomized atomic wfcs
     Checking if some PAW data can be deallocated... 

     total cpu time spent up to now is      226.4 secs

     Self-consistent Calculation

     iteration #  1     ecut=   100.00 Ry     beta= 0.70
     Davidson diagonalization with overlap
     c_bands:  1 eigenvalues not converged
     c_bands:  1 eigenvalues not converged
     c_bands:  2 eigenvalues not converged
     c_bands:  2 eigenvalues not converged
     c_bands:  1 eigenvalues not converged
     c_bands:  1 eigenvalues not converged
     c_bands:  2 eigenvalues not converged
     ethr =  1.00E-06,  avg # of iterations = 16.7

     total cpu time spent up to now is      250.3 secs

     total energy              =    -189.63634595 Ry
     estimated scf accuracy    <       1.06432696 Ry

     iteration #  2     ecut=   100.00 Ry     beta= 0.70
     Davidson diagonalization with overlap
     ethr =  3.33E-03,  avg # of iterations =  2.7

     total cpu time spent up to now is      257.8 secs

     total energy              =    -190.00844809 Ry
     estimated scf accuracy    <       0.47630249 Ry

     iteration #  3     ecut=   100.00 Ry     beta= 0.70
     Davidson diagonalization with overlap
     ethr =  1.49E-03,  avg # of iterations =  1.9

     total cpu time spent up to now is      263.8 secs

     total energy              =    -190.07087979 Ry
     estimated scf accuracy    <       0.01081605 Ry

     iteration #  4     ecut=   100.00 Ry     beta= 0.70
     Davidson diagonalization with overlap
     ethr =  3.38E-05,  avg # of iterations =  4.4

     total cpu time spent up to now is      273.0 secs

     total energy              =    -190.07905270 Ry
     estimated scf accuracy    <       0.00909399 Ry

     iteration #  5     ecut=   100.00 Ry     beta= 0.70
     Davidson diagonalization with overlap
     ethr =  2.84E-05,  avg # of iterations =  2.4

     total cpu time spent up to now is      278.8 secs

     total energy              =    -190.07901515 Ry
     estimated scf accuracy    <       0.00156658 Ry

     iteration #  6     ecut=   100.00 Ry     beta= 0.70
     Davidson diagonalization with overlap
     ethr =  4.90E-06,  avg # of iterations =  3.8

     total cpu time spent up to now is      286.4 secs

     total energy              =    -190.07932794 Ry
     estimated scf accuracy    <       0.00003168 Ry

     iteration #  7     ecut=   100.00 Ry     beta= 0.70
     Davidson diagonalization with overlap
     ethr =  9.90E-08,  avg # of iterations =  3.9

     total cpu time spent up to now is      294.3 secs

     total energy              =    -190.07934597 Ry
     estimated scf accuracy    <       0.00000095 Ry

     iteration #  8     ecut=   100.00 Ry     beta= 0.70
     Davidson diagonalization with overlap
     ethr =  2.98E-09,  avg # of iterations =  2.2

     total cpu time spent up to now is      301.5 secs

     total energy              =    -190.07934626 Ry
     estimated scf accuracy    <          3.1E-09 Ry

     iteration #  9     ecut=   100.00 Ry     beta= 0.70
     Davidson diagonalization with overlap
     ethr =  9.77E-12,  avg # of iterations =  5.3

     total cpu time spent up to now is      312.5 secs

     total energy              =    -190.07934627 Ry
     estimated scf accuracy    <          3.8E-10 Ry

     iteration # 10     ecut=   100.00 Ry     beta= 0.70
     Davidson diagonalization with overlap
     ethr =  1.19E-12,  avg # of iterations =  4.1

     total cpu time spent up to now is      322.4 secs

     total energy              =    -190.07934627 Ry
     estimated scf accuracy    <          4.6E-09 Ry

     iteration # 11     ecut=   100.00 Ry     beta= 0.70
     Davidson diagonalization with overlap
     ethr =  1.19E-12,  avg # of iterations =  3.6

     total cpu time spent up to now is      331.7 secs

     End of self-consistent calculation

          k = 0.0000 0.0000 0.0000 (  5425 PWs)   bands (ev):

   -12.1593  -8.6744  -8.6744  -8.4817  -0.5623   3.8476   3.8476   4.1149
     4.8561   5.1289   7.0545   7.0545   7.6131   9.2515   9.2515  10.0998
    15.2315  16.7116  18.4249  18.4249

          k = 0.0000 0.0000 0.1743 (  5444 PWs)   bands (ev):

   -12.0001  -8.5938  -8.5938  -8.4622  -0.5014   3.9826   3.9826   4.2901
     4.4067   4.9052   6.5104   6.5104   7.0141   9.1371   9.1371   9.9611
    15.8388  17.5596  19.1240  19.1240

          k = 0.0000 0.0000 0.3486 (  5464 PWs)   bands (ev):

   -11.5392  -8.4683  -8.3795  -8.3795  -0.3610   3.6176   4.0566   4.3669
     4.3669   4.8028   5.3251   5.3251   5.9660   8.7728   8.7728   9.5213
    16.9439  19.3085  20.0847  20.6989

          k = 0.0000 0.0000 0.5229 (  5460 PWs)   bands (ev):

   -10.8320  -8.6686  -8.1143  -8.1143  -0.1628   2.6502   3.2974   4.1467
     4.1467   4.9580   4.9580   5.1163   5.6112   8.1966   8.1966   8.7585
    17.7105  20.0474  20.6735  22.0978

          k = 0.0000 0.0000 0.6972 (  5504 PWs)   bands (ev):

    -9.9904  -9.1991  -7.9263  -7.9263   0.3122   1.2797   3.4575   3.4575
     3.6254   4.3205   5.5075   5.5075   6.6345   7.6276   7.6276   7.7419
    18.3990  19.3158  21.8599  22.4622

          k = 0.0000 0.2498 0.0000 (  5449 PWs)   bands (ev):

   -11.8472  -9.7353  -8.5239  -8.0489  -0.1289   2.5548   4.1663   5.0209
     5.0921   6.0269   6.5525   7.1841   7.6686   8.0691   9.1489   9.6526
    16.1443  17.1885  18.5713  18.6401

          k = 0.0000 0.2498 0.1743 (  5455 PWs)   bands (ev):

   -11.6932  -9.6325  -8.4541  -8.0287  -0.0288   2.6618   3.8148   4.7785
     5.3145   5.4261   6.4787   6.7147   6.9407   8.3308   9.0234   9.6142
    16.5774  17.9668  19.2243  19.2734

          k = 0.0000 0.2498 0.3486 (  5473 PWs)   bands (ev):

   -11.2496  -9.3634  -8.2759  -8.0099   0.1989   2.8773   2.9368   3.9361
     4.7364   5.5614   5.7380   6.0368   6.3347   8.3991   8.6435   9.3795
    17.3778  19.4610  20.3952  20.5752

          k = 0.0000 0.2498 0.5229 (  5480 PWs)   bands (ev):

   -10.5790  -9.0879  -8.0819  -8.0612   0.3484   2.1950   2.4984   3.4032
     4.0470   4.3598   6.0530   6.0552   6.4145   8.0962   8.1977   8.8771
    17.9598  19.7579  20.2721  21.1023

          k = 0.0000 0.2498 0.6972 (  5492 PWs)   bands (ev):

    -9.8122  -9.1975  -8.0620  -7.9992   0.5191   1.1226   2.7068   3.0859
     3.5771   3.7692   6.0742   6.3317   7.0536   7.7355   7.8041   8.2233
    18.4528  19.0999  20.4509  20.8057

          k = 0.0000-0.4996 0.0000 (  5474 PWs)   bands (ev):

   -10.9691 -10.9691  -8.1907  -8.1907   0.9895   0.9895   5.6497   5.6497
     5.7324   5.7324   6.3700   6.3700   7.4760   7.4760   9.0596   9.0596
    17.4767  17.4767  19.0157  19.0157

          k = 0.0000-0.4996 0.1743 (  5468 PWs)   bands (ev):

   -10.8324 -10.8324  -8.1493  -8.1493   1.1202   1.1202   4.4504   4.4504
     5.9868   5.9868   6.6203   6.6203   7.2527   7.2527   8.9821   8.9821
    17.9455  17.9455  19.7110  19.7110

          k = 0.0000-0.4996 0.3486 (  5464 PWs)   bands (ev):

   -10.4474 -10.4474  -8.0641  -8.0641   1.4683   1.4683   2.9729   2.9729
     5.1897   5.1897   6.8370   6.8370   7.2472   7.2472   8.7777   8.7777
    18.6547  18.6547  20.5756  20.5757

          k = 0.0000-0.4996 0.5229 (  5492 PWs)   bands (ev):

    -9.9028  -9.9028  -8.0389  -8.0389   1.5795   1.5795   2.0382   2.0382
     4.2137   4.2137   6.6560   6.6560   7.5579   7.5579   8.5689   8.5689
    18.7991  18.7991  19.9688  19.9688

          k = 0.0000-0.4996 0.6972 (  5476 PWs)   bands (ev):

    -9.4147  -9.4147  -8.1352  -8.1352   0.9524   0.9524   2.1835   2.1835
     3.7590   3.7590   6.3279   6.3279   7.8377   7.8377   8.4434   8.4434
    18.6364  18.6364  19.6877  19.6877

          k = 0.2498 0.2498 0.0000 (  5454 PWs)   bands (ev):

   -11.5558  -9.9043  -8.8448  -8.1087   0.3945   2.6389   3.8852   5.3145
     5.5335   6.2238   6.5054   6.9942   7.5813   7.6553   8.7084   9.3249
    16.5107  17.4931  18.6192  19.3490

          k = 0.2498 0.2498 0.1743 (  5455 PWs)   bands (ev):

   -11.4074  -9.8004  -8.7587  -8.0780   0.4848   2.4636   3.9905   4.8203
     5.4503   5.5162   6.5630   6.6548   6.9411   8.0613   8.6809   9.3755
    16.9191  18.1420  19.1951  19.9773

          k = 0.2498 0.2498 0.3486 (  5458 PWs)   bands (ev):

   -10.9827  -9.5279  -8.5284  -8.0265   0.6300   1.9360   3.6505   4.1187
     4.6722   5.0166   5.6186   6.4361   7.0049   8.1582   8.5590   9.2815
    17.5229  19.0895  20.2712  21.3397

          k = 0.2498 0.2498 0.5229 (  5472 PWs)   bands (ev):

   -10.3524  -9.2279  -8.2414  -8.0469   0.3786   1.4948   2.6936   3.4154
     3.8067   5.1211   5.1441   6.9232   6.9773   8.0133   8.2725   8.9452
    17.7437  18.7995  20.5872  21.8003

          k = 0.2498 0.2498 0.6972 (  5481 PWs)   bands (ev):

    -9.6680  -9.2005  -8.1299  -8.0364   0.0052   1.0203   2.6842   2.7683
     3.0811   4.9613   5.5781   7.0521   7.5010   7.7590   7.9330   8.4833
    17.8050  18.3886  20.3643  21.7303

          k = 0.2498-0.4996 0.0000 (  5474 PWs)   bands (ev):

   -10.7670 -10.7670  -8.5637  -8.5637   1.5754   1.5754   5.0661   5.0661
     5.9004   5.9004   6.7963   6.7963   7.2470   7.2470   8.6777   8.6777
    17.2922  17.2922  19.4711  19.4711

          k = 0.2498-0.4996 0.1743 (  5484 PWs)   bands (ev):

   -10.6368 -10.6368  -8.4985  -8.4985   1.5757   1.5757   4.5300   4.5300
     5.6999   5.6999   6.5784   6.5784   7.3194   7.3194   8.7560   8.7560
    17.7291  17.7291  20.0621  20.0621

          k = 0.2498-0.4996 0.3486 (  5460 PWs)   bands (ev):

   -10.2739 -10.2739  -8.3386  -8.3386   1.3691   1.3691   3.6789   3.6789
     4.7694   4.7694   6.5559   6.5559   7.5345   7.5345   8.7639   8.7639
    18.1842  18.1842  21.2882  21.2882

          k = 0.2498-0.4996 0.5229 (  5466 PWs)   bands (ev):

    -9.7768  -9.7768  -8.1855  -8.1855   0.6989   0.6989   3.1142   3.1142
     4.0530   4.0530   6.6431   6.6431   7.7582   7.7582   8.6444   8.6444
    17.9155  17.9155  21.0522  21.0522

          k = 0.2498-0.4996 0.6972 (  5448 PWs)   bands (ev):

    -9.3627  -9.3627  -8.1376  -8.1376   0.1224   0.1224   2.5580   2.5580
     4.0965   4.0965   6.6334   6.6334   7.8953   7.8953   8.5533   8.5533
    17.5751  17.5751  20.6559  20.6559

          k =-0.4996-0.4996 0.0000 (  5452 PWs)   bands (ev):

   -10.4838 -10.4838  -9.0059  -9.0059   2.3628   2.3628   4.3354   4.3354
     6.1530   6.1530   6.9346   6.9346   7.5342   7.5342   7.9175   7.9175
    17.1912  17.1912  19.9373  19.9373

          k =-0.4996-0.4996 0.1743 (  5456 PWs)   bands (ev):

   -10.3645 -10.3645  -8.9148  -8.9148   2.1224   2.1224   4.3581   4.3581
     5.9063   5.9063   6.0455   6.0455   7.9928   7.9928   8.0619   8.0619
    17.6004  17.6004  20.4470  20.4470

          k =-0.4996-0.4996 0.3486 (  5480 PWs)   bands (ev):

   -10.0399 -10.0399  -8.6702  -8.6702   1.3682   1.3682   3.9917   3.9917
     5.2824   5.2824   5.5900   5.5900   8.1907   8.1907   8.4070   8.4070
    17.9353  17.9353  21.3435  21.3435

          k =-0.4996-0.4996 0.5229 (  5444 PWs)   bands (ev):

    -9.6207  -9.6207  -8.3635  -8.3635   0.3607   0.3607   2.9651   2.9651
     5.4372   5.4372   5.5499   5.5499   8.4298   8.4298   8.4662   8.4662
    17.5108  17.5108  21.2891  21.2891

          k =-0.4996-0.4996 0.6972 (  5448 PWs)   bands (ev):

    -9.3077  -9.3077  -8.1427  -8.1427  -0.3451  -0.3451   2.2679   2.2679
     5.6235   5.6235   5.6955   5.6955   8.3958   8.3958   8.5951   8.5951
    17.0539  17.0539  20.9331  20.9331

     the Fermi energy is    14.1469 ev

!    total energy              =    -190.07934627 Ry
     estimated scf accuracy    <          3.5E-12 Ry
     smearing contrib. (-TS)   =       0.00000000 Ry
     internal energy E=F+TS    =    -190.07934627 Ry

     The total energy is F=E-TS. E is the sum of the following terms:
     one-electron contribution =     -14.56487371 Ry
     hartree contribution      =      32.07725746 Ry
     xc contribution           =     -43.07143242 Ry
     ewald contribution        =    -126.52181595 Ry
     one-center paw contrib.   =     -37.99848165 Ry

     convergence has been achieved in  11 iterations

     Forces acting on atoms (cartesian axes, Ry/au):

     atom    1 type  1   force =     0.00000000    0.00000000   -0.00000000
     atom    2 type  1   force =     0.00000000    0.00000000    0.00000000
     atom    3 type  2   force =    -0.00003053   -0.00003053    0.00000000
     atom    4 type  2   force =     0.00003053    0.00003053    0.00000000
     atom    5 type  2   force =     0.00003053   -0.00003053   -0.00000000
     atom    6 type  2   force =    -0.00003053    0.00003053   -0.00000000

     Total force =     0.000086     Total SCF correction =     0.000001


     Computing stress (Cartesian axis) and pressure

          total   stress  (Ry/bohr**3)                   (kbar)     P=       19.12
   0.00012985   0.00000000   0.00000000           19.10        0.00        0.00
   0.00000000   0.00012985   0.00000000            0.00       19.10        0.00
   0.00000000   0.00000000   0.00013025            0.00        0.00       19.16


     Writing all to output data dir ./SiO2.save/ :
     XML data file, charge density, pseudopotentials, collected wavefunctions

     init_run     :      6.24s CPU      6.41s WALL (       2 calls)
     electrons    :    291.44s CPU    295.91s WALL (       5 calls)
     update_pot   :      0.36s CPU      0.36s WALL (       3 calls)
     forces       :      7.21s CPU      7.47s WALL (       5 calls)
     stress       :     25.93s CPU     26.73s WALL (       5 calls)

     Called by init_run:
     wfcinit      :      4.85s CPU      4.89s WALL (       2 calls)
     potinit      :      0.27s CPU      0.31s WALL (       2 calls)
     hinit0       :      0.82s CPU      0.83s WALL (       2 calls)

     Called by electrons:
     c_bands      :    255.51s CPU    256.02s WALL (      37 calls)
     sum_band     :     28.03s CPU     30.65s WALL (      37 calls)
     v_of_rho     :      0.97s CPU      0.98s WALL (      39 calls)
     newd         :      4.51s CPU      6.01s WALL (      39 calls)
     PAW_pot      :      3.63s CPU      3.66s WALL (      42 calls)
     mix_rho      :      0.15s CPU      0.15s WALL (      37 calls)

     Called by c_bands:
     init_us_2    :      4.35s CPU      4.39s WALL (    2670 calls)
     cegterg      :    247.41s CPU    247.87s WALL (    1110 calls)

     Called by *egterg:
     cdiaghg      :      1.85s CPU      1.86s WALL (    4591 calls)
     h_psi        :    138.34s CPU    138.70s WALL (    4831 calls)
     s_psi        :     32.88s CPU     32.92s WALL (    4831 calls)
     g_psi        :      0.69s CPU      0.70s WALL (    3661 calls)

     Called by h_psi:
     h_psi:calbec :     36.34s CPU     36.39s WALL (    4831 calls)
     vloc_psi     :     68.10s CPU     68.36s WALL (    4831 calls)
                                        0.00s GPU  (    4831 calls)
     add_vuspsi   :     33.32s CPU     33.38s WALL (    4831 calls)

     General routines
     calbec       :     70.86s CPU     70.96s WALL (    8581 calls)
     fft          :      0.55s CPU      0.55s WALL (     560 calls)
     ffts         :      0.03s CPU      0.03s WALL (      37 calls)
     fftw         :     66.24s CPU     66.51s WALL (  160092 calls)

     Parallel routines

     PWSCF        :   5m32.84s CPU   5m38.72s WALL


   This run was terminated on:  16:38:45  17Jul2026            

=------------------------------------------------------------------------------=
   JOB DONE.
=------------------------------------------------------------------------------=
