
     Program PWSCF v.7.5 starts on 17Jul2026 at 16:45:55 

     This program is part of the open-source Quantum ESPRESSO suite
     for quantum simulation of materials; please cite
         "P. Giannozzi et al., J. Phys.:Condens. Matter 21 395502 (2009);
         "P. Giannozzi et al., J. Phys.:Condens. Matter 29 465901 (2017);
         "P. Giannozzi et al., J. Chem. Phys. 152 154105 (2020);
          URL http://www.quantum-espresso.org", 
     in publications or presentations arising from this work. More details at
     http://www.quantum-espresso.org/quote

     Parallel version (MPI), running on     1 processors

     MPI processes distributed on     1 nodes
     11984 MiB available memory on the printing compute node when the environment starts

     Reading input from espresso.pwi
Warning: card &FCP ignored
Warning: card &RISM ignored

     Current dimensions of program PWSCF are:
     Max number of different atomic species (ntypx) = 10
     Max number of k-points (npk) =  40000
     Max angular momentum in pseudopotentials (lmaxx) =  4
     file O.pbe-n-kjpaw_psl.0.1.UPF: wavefunction(s)  2P renormalized
     Message from routine setup:
     using ibrav=0 with symmetry is DISCOURAGED, use correct ibrav instead

     Subspace diagonalization in iterative solution of the eigenvalue problem:
     a serial algorithm will be used


     G-vector sticks info
     --------------------
     sticks:   dense  smooth     PW     G-vecs:    dense   smooth      PW
     Sum        2093    2093    601                46301    46301    7209

     Using Slab Decomposition



     bravais-lattice index     =            0
     lattice parameter (alat)  =       8.1253  a.u.
     unit-cell volume          =     342.2730 (a.u.)^3
     number of atoms/cell      =            6
     number of atomic types    =            2
     number of electrons       =        32.00
     number of Kohn-Sham states=           20
     kinetic-energy cutoff     =     100.0000  Ry
     charge density cutoff     =     400.0000  Ry
     scf convergence threshold =      1.0E-08
     mixing beta               =       0.7000
     number of iterations used =            8  plain     mixing
     energy convergence thresh.=      1.0E-04
     force convergence thresh. =      1.0E-03
     press convergence thresh. =      5.0E-01
     Exchange-correlation= SLA  PW   PBX  PBC
                           (   1   4   3   4   0   0   0)
     nstep                     =           50


     celldm(1)=   8.125255  celldm(2)=   0.000000  celldm(3)=   0.000000
     celldm(4)=   0.000000  celldm(5)=   0.000000  celldm(6)=   0.000000

     crystal axes: (cart. coord. in units of alat)
               a(1) = (   1.000000   0.000000   0.000000 )  
               a(2) = (   0.000000   1.000000   0.000000 )  
               a(3) = (   0.000000   0.000000   0.638060 )  

     reciprocal axes: (cart. coord. in units 2 pi/alat)
               b(1) = (  1.000000  0.000000  0.000000 )  
               b(2) = (  0.000000  1.000000  0.000000 )  
               b(3) = (  0.000000  0.000000  1.567250 )  


     PseudoPot. # 1 for Si read from file:
     /home/yluo/ASE/05b_ev/ase/src/Si.pbe-n-rrkjus_psl.1.0.0.UPF
     MD5 check sum: 0b0bb1205258b0d07b9f9672cf965d36
     Pseudo is Ultrasoft + core correction, Zval =  4.0
     Generated using "atomic" code by A. Dal Corso  v.5.1
     Using radial grid of 1141 points,  6 beta functions with: 
                l(1) =   0
                l(2) =   0
                l(3) =   1
                l(4) =   1
                l(5) =   2
                l(6) =   2
     Q(r) pseudized with 0 coefficients 


     PseudoPot. # 2 for O  read from file:
     /home/yluo/ASE/05b_ev/ase/src/O.pbe-n-kjpaw_psl.0.1.UPF
     MD5 check sum: 0234752ac141de4415c5fc33072bef88
     Pseudo is Projector augmented-wave + core cor, Zval =  6.0
     Generated using "atomic" code by A. Dal Corso  v.5.0.99 svn rev. 10869
     Shape of augmentation charge: BESSEL
     Using radial grid of 1095 points,  4 beta functions with: 
                l(1) =   0
                l(2) =   0
                l(3) =   1
                l(4) =   1
     Q(r) pseudized with 0 coefficients 


     atomic species   valence    mass     pseudopotential
     Si                4.00    28.08500     Si( 1.00)
     O                 6.00    15.99900     O ( 1.00)

     16 Sym. Ops., with inversion, found ( 8 have fractional translation)



   Cartesian axes

     site n.     atom                  positions (alat units)
         1        Si     tau(   1) = (   0.0000000   0.0000000   0.0000000  )
         2        Si     tau(   2) = (   0.5000000   0.5000000   0.3190301  )
         3        O      tau(   3) = (   0.3061300   0.3061300   0.0000000  )
         4        O      tau(   4) = (   0.6938700   0.6938700   0.0000000  )
         5        O      tau(   5) = (   0.1938700   0.8061300   0.3190301  )
         6        O      tau(   6) = (   0.8061300   0.1938700   0.3190301  )

     number of k points=    30  Marzari-Vanderbilt smearing, width (Ry)=  0.0050
                       cart. coord. in units 2pi/alat
        k(    1) = (   0.0000000   0.0000000   0.0000000), wk =   0.0138889
        k(    2) = (   0.0000000   0.0000000   0.1741389), wk =   0.0277778
        k(    3) = (   0.0000000   0.0000000   0.3482779), wk =   0.0277778
        k(    4) = (   0.0000000   0.0000000   0.5224168), wk =   0.0277778
        k(    5) = (   0.0000000   0.0000000   0.6965557), wk =   0.0277778
        k(    6) = (   0.0000000   0.2500000   0.0000000), wk =   0.0555556
        k(    7) = (   0.0000000   0.2500000   0.1741389), wk =   0.1111111
        k(    8) = (   0.0000000   0.2500000   0.3482779), wk =   0.1111111
        k(    9) = (   0.0000000   0.2500000   0.5224168), wk =   0.1111111
        k(   10) = (   0.0000000   0.2500000   0.6965557), wk =   0.1111111
        k(   11) = (   0.0000000  -0.5000000   0.0000000), wk =   0.0277778
        k(   12) = (   0.0000000  -0.5000000   0.1741389), wk =   0.0555556
        k(   13) = (   0.0000000  -0.5000000   0.3482779), wk =   0.0555556
        k(   14) = (   0.0000000  -0.5000000   0.5224168), wk =   0.0555556
        k(   15) = (   0.0000000  -0.5000000   0.6965557), wk =   0.0555556
        k(   16) = (   0.2500000   0.2500000   0.0000000), wk =   0.0555556
        k(   17) = (   0.2500000   0.2500000   0.1741389), wk =   0.1111111
        k(   18) = (   0.2500000   0.2500000   0.3482779), wk =   0.1111111
        k(   19) = (   0.2500000   0.2500000   0.5224168), wk =   0.1111111
        k(   20) = (   0.2500000   0.2500000   0.6965557), wk =   0.1111111
        k(   21) = (   0.2500000  -0.5000000   0.0000000), wk =   0.0555556
        k(   22) = (   0.2500000  -0.5000000   0.1741389), wk =   0.1111111
        k(   23) = (   0.2500000  -0.5000000   0.3482779), wk =   0.1111111
        k(   24) = (   0.2500000  -0.5000000   0.5224168), wk =   0.1111111
        k(   25) = (   0.2500000  -0.5000000   0.6965557), wk =   0.1111111
        k(   26) = (  -0.5000000  -0.5000000   0.0000000), wk =   0.0138889
        k(   27) = (  -0.5000000  -0.5000000   0.1741389), wk =   0.0277778
        k(   28) = (  -0.5000000  -0.5000000   0.3482779), wk =   0.0277778
        k(   29) = (  -0.5000000  -0.5000000   0.5224168), wk =   0.0277778
        k(   30) = (  -0.5000000  -0.5000000   0.6965557), wk =   0.0277778

     Dense  grid:    46301 G-vectors     FFT dimensions: (  54,  54,  36)

     Estimated max dynamical RAM per process >     236.98 MB

     Check: negative core charge=   -0.000002

     Initial potential from superposition of free atoms

     starting charge      31.9989, renormalised to      32.0000
     Starting wfcs are   24 randomized atomic wfcs
     Checking if some PAW data can be deallocated... 

     total cpu time spent up to now is        4.0 secs

     Self-consistent Calculation

     iteration #  1     ecut=   100.00 Ry     beta= 0.70
     Davidson diagonalization with overlap
     ethr =  1.00E-02,  avg # of iterations =  2.5

     total cpu time spent up to now is       12.1 secs

     total energy              =    -189.56888816 Ry
     estimated scf accuracy    <       1.12002747 Ry

     iteration #  2     ecut=   100.00 Ry     beta= 0.70
     Davidson diagonalization with overlap
     ethr =  3.50E-03,  avg # of iterations =  2.9

     total cpu time spent up to now is       20.3 secs

     total energy              =    -189.97560636 Ry
     estimated scf accuracy    <       0.62467720 Ry

     iteration #  3     ecut=   100.00 Ry     beta= 0.70
     Davidson diagonalization with overlap
     ethr =  1.95E-03,  avg # of iterations =  1.9

     total cpu time spent up to now is       26.4 secs

     total energy              =    -190.05922134 Ry
     estimated scf accuracy    <       0.01490617 Ry

     iteration #  4     ecut=   100.00 Ry     beta= 0.70
     Davidson diagonalization with overlap
     ethr =  4.66E-05,  avg # of iterations =  5.7

     total cpu time spent up to now is       36.6 secs

     total energy              =    -190.07067609 Ry
     estimated scf accuracy    <       0.01271648 Ry

     iteration #  5     ecut=   100.00 Ry     beta= 0.70
     Davidson diagonalization with overlap
     ethr =  3.97E-05,  avg # of iterations =  1.8

     total cpu time spent up to now is       42.8 secs

     total energy              =    -190.07097406 Ry
     estimated scf accuracy    <       0.00173892 Ry

     iteration #  6     ecut=   100.00 Ry     beta= 0.70
     Davidson diagonalization with overlap
     ethr =  5.43E-06,  avg # of iterations =  4.1

     total cpu time spent up to now is       51.1 secs

     total energy              =    -190.07139490 Ry
     estimated scf accuracy    <       0.00001733 Ry

     iteration #  7     ecut=   100.00 Ry     beta= 0.70
     Davidson diagonalization with overlap
     ethr =  5.42E-08,  avg # of iterations =  4.7

     total cpu time spent up to now is       60.7 secs

     total energy              =    -190.07141657 Ry
     estimated scf accuracy    <       0.00000778 Ry

     iteration #  8     ecut=   100.00 Ry     beta= 0.70
     Davidson diagonalization with overlap
     ethr =  2.43E-08,  avg # of iterations =  1.8

     total cpu time spent up to now is       67.0 secs

     total energy              =    -190.07141649 Ry
     estimated scf accuracy    <       0.00000117 Ry

     iteration #  9     ecut=   100.00 Ry     beta= 0.70
     Davidson diagonalization with overlap
     ethr =  3.66E-09,  avg # of iterations =  2.4

     total cpu time spent up to now is       74.5 secs

     total energy              =    -190.07141696 Ry
     estimated scf accuracy    <       0.00000010 Ry

     iteration # 10     ecut=   100.00 Ry     beta= 0.70
     Davidson diagonalization with overlap
     ethr =  3.24E-10,  avg # of iterations =  1.7

     total cpu time spent up to now is       80.3 secs

     total energy              =    -190.07141695 Ry
     estimated scf accuracy    <       0.00000002 Ry

     iteration # 11     ecut=   100.00 Ry     beta= 0.70
     Davidson diagonalization with overlap
     ethr =  6.32E-11,  avg # of iterations =  2.4

     total cpu time spent up to now is       87.6 secs

     End of self-consistent calculation

          k = 0.0000 0.0000 0.0000 (  5773 PWs)   bands (ev):

   -12.4450  -9.2373  -9.2373  -9.0321  -1.1166   3.2966   3.2966   3.7040
     4.2257   4.5533   6.3596   6.3596   6.8377   8.4376   8.4376   9.2601
    13.4329  15.6026  17.0837  17.0837

          k = 0.0000 0.0000 0.1741 (  5793 PWs)   bands (ev):

   -12.2961  -9.1643  -9.1643  -9.0169  -1.0573   3.4248   3.4248   3.8084
     3.8687   4.3384   5.8386   5.8386   6.2140   8.3347   8.3347   9.1321
    14.0645  16.3724  17.7531  17.7531

          k = 0.0000 0.0000 0.3483 (  5777 PWs)   bands (ev):

   -11.8659  -9.0294  -8.9708  -8.9708  -0.9141   3.0697   3.4822   3.7905
     3.7905   4.3502   4.7076   4.7076   5.1907   8.0030   8.0030   8.7272
    15.2109  17.8917  19.2621  19.2630

          k = 0.0000 0.0000 0.5224 (  5772 PWs)   bands (ev):

   -11.2085  -9.2188  -8.7331  -8.7331  -0.6993   2.0679   2.7534   3.6024
     3.6024   4.3345   4.3345   4.4142   5.1073   7.4772   7.4772   8.0260
    16.0737  18.4059  19.3630  20.6194

          k = 0.0000 0.0000 0.6966 (  5792 PWs)   bands (ev):

   -10.4312  -9.7055  -8.5660  -8.5660  -0.2199   0.7236   2.9508   2.9508
     3.0400   3.6796   4.8406   4.8406   6.0617   6.9646   6.9646   7.0887
    16.8114  17.6965  20.4668  21.0115

          k = 0.0000 0.2500 0.0000 (  5788 PWs)   bands (ev):

   -12.1524 -10.1911  -9.0997  -8.6617  -0.6589   2.0470   3.6152   4.4523
     4.4914   5.3801   5.8599   6.4798   6.9148   7.2843   8.3494   8.8365
    14.4042  15.9815  17.2166  17.3372

          k = 0.0000 0.2500 0.1741 (  5773 PWs)   bands (ev):

   -12.0088 -10.0971  -9.0368  -8.6449  -0.5689   2.1508   3.2485   4.2610
     4.6505   4.8083   5.8189   6.0363   6.1959   7.5614   8.2356   8.8040
    14.8355  16.6699  17.8490  17.9477

          k = 0.0000 0.2500 0.3483 (  5790 PWs)   bands (ev):

   -11.5958  -9.8523  -8.8769  -8.6315  -0.3649   2.3766   2.4240   3.2620
     4.2064   4.9099   5.0664   5.4538   5.6669   7.6441   7.8891   8.5917
    15.6589  17.9180  18.9894  19.1659

          k = 0.0000 0.2500 0.5224 (  5767 PWs)   bands (ev):

   -10.9742  -9.6039  -8.7040  -8.6818  -0.2167   1.6644   2.0037   2.7648
     3.5162   3.7812   5.3861   5.4156   5.8239   7.3920   7.4650   8.1300
    16.3194  18.1321  18.8755  19.6633

          k = 0.0000 0.2500 0.6966 (  5764 PWs)   bands (ev):

   -10.2685  -9.7064  -8.6852  -8.6307  -0.0210   0.5886   2.1677   2.5058
     3.0641   3.2244   5.4300   5.6409   6.4303   7.0449   7.1328   7.5244
    16.8772  17.5264  19.0294  19.3718

          k = 0.0000-0.5000 0.0000 (  5794 PWs)   bands (ev):

   -11.3326 -11.3326  -8.7954  -8.7954   0.4934   0.4934   4.9475   4.9475
     5.0677   5.0677   5.7506   5.7506   6.7483   6.7483   8.2801   8.2801
    15.8731  15.8731  17.7326  17.7326

          k = 0.0000-0.5000 0.1741 (  5786 PWs)   bands (ev):

   -11.2061 -11.2061  -8.7588  -8.7588   0.6135   0.6135   3.8075   3.8075
     5.3598   5.3598   5.9243   5.9243   6.5520   6.5520   8.2112   8.2112
    16.2871  16.2871  18.4013  18.4013

          k = 0.0000-0.5000 0.3483 (  5772 PWs)   bands (ev):

   -10.8505 -10.8505  -8.6842  -8.6842   0.9235   0.9235   2.4093   2.4093
     4.5822   4.5822   6.1529   6.1529   6.5571   6.5571   8.0283   8.0283
    16.9506  16.9506  19.2215  19.2220

          k = 0.0000-0.5000 0.5224 (  5776 PWs)   bands (ev):

   -10.3505 -10.3505  -8.6638  -8.6638   0.9630   0.9630   1.5703   1.5703
     3.6569   3.6569   5.9951   5.9951   6.8573   6.8573   7.8393   7.8393
    17.1815  17.1815  18.5904  18.5904

          k = 0.0000-0.5000 0.6966 (  5770 PWs)   bands (ev):

    -9.9064  -9.9064  -8.7502  -8.7502   0.4053   0.4053   1.6640   1.6640
     3.2220   3.2220   5.6965   5.6965   7.1247   7.1247   7.7240   7.7240
    17.1258  17.1258  18.2636  18.2636

          k = 0.2500 0.2500 0.0000 (  5792 PWs)   bands (ev):

   -11.8801 -10.3476  -9.3830  -8.7180  -0.1443   2.0627   3.3510   4.6649
     4.9838   5.5186   5.8013   6.3042   6.8415   6.9006   7.9527   8.5215
    14.8751  16.0996  17.3733  17.9659

          k = 0.2500 0.2500 0.1741 (  5789 PWs)   bands (ev):

   -11.7420 -10.2526  -9.3053  -8.6914  -0.0664   1.9029   3.4549   4.2082
     4.7389   4.9366   5.9184   5.9668   6.2208   7.3096   7.9269   8.5749
    15.2432  16.6739  17.9433  18.5587

          k = 0.2500 0.2500 0.3483 (  5785 PWs)   bands (ev):

   -11.3477 -10.0048  -9.0984  -8.6482   0.0473   1.4276   3.0613   3.6015
     4.0071   4.3806   4.9796   5.8498   6.3019   7.4189   7.8141   8.4964
    15.8401  17.4659  18.9322  19.8601

          k = 0.2500 0.2500 0.5224 (  5790 PWs)   bands (ev):

   -10.7653  -9.7344  -8.8427  -8.6701  -0.1700   0.9675   2.1472   2.9297
     3.2204   4.4974   4.5008   6.2807   6.3084   7.2931   7.5545   8.1891
    16.1433  17.2472  19.0754  20.4702

          k = 0.2500 0.2500 0.6966 (  5779 PWs)   bands (ev):

   -10.1382  -9.7121  -8.7465  -8.6617  -0.4818   0.4619   2.1315   2.3175
     2.5571   4.3492   4.9049   6.3450   6.8416   7.0631   7.2540   7.7643
    16.2659  16.8887  18.8351  20.4530

          k = 0.2500-0.5000 0.0000 (  5778 PWs)   bands (ev):

   -11.1458 -11.1458  -9.1261  -9.1261   1.0180   1.0180   4.4099   4.4099
     5.2241   5.2241   6.1381   6.1381   6.5350   6.5350   7.9195   7.9195
    15.7502  15.7502  18.1420  18.1420

          k = 0.2500-0.5000 0.1741 (  5790 PWs)   bands (ev):

   -11.0255 -11.0255  -9.0680  -9.0680   1.0124   1.0124   3.8943   3.8943
     5.0689   5.0689   5.8698   5.8698   6.6459   6.6459   7.9948   7.9948
    16.1286  16.1286  18.7135  18.7135

          k = 0.2500-0.5000 0.3483 (  5758 PWs)   bands (ev):

   -10.6915 -10.6915  -8.9265  -8.9265   0.8033   0.8033   3.0964   3.0964
     4.1834   4.1834   5.8522   5.8522   6.8582   6.8582   8.0094   8.0094
    16.5415  16.5415  19.9453  19.9453

          k = 0.2500-0.5000 0.5224 (  5790 PWs)   bands (ev):

   -10.2371 -10.2371  -8.7926  -8.7926   0.1694   0.1694   2.5918   2.5918
     3.4738   3.4738   5.9465   5.9465   7.0672   7.0672   7.9054   7.9054
    16.3476  16.3476  19.6707  19.6707

          k = 0.2500-0.5000 0.6966 (  5794 PWs)   bands (ev):

    -9.8625  -9.8625  -8.7514  -8.7514  -0.3731  -0.3731   2.0945   2.0945
     3.4870   3.4870   5.9458   5.9458   7.1952   7.1952   7.8233   7.8233
    16.0586  16.0586  19.3310  19.3310

          k =-0.5000-0.5000 0.0000 (  5804 PWs)   bands (ev):

   -10.8853 -10.8853  -9.5218  -9.5218   1.7129   1.7129   3.7478   3.7478
     5.4536   5.4536   6.2496   6.2496   6.7844   6.7844   7.2471   7.2471
    15.6780  15.6780  18.5590  18.5590

          k =-0.5000-0.5000 0.1741 (  5788 PWs)   bands (ev):

   -10.7757 -10.7757  -9.4397  -9.4397   1.4841   1.4841   3.7798   3.7798
     5.2222   5.2222   5.3740   5.3740   7.3127   7.3127   7.3159   7.3159
    16.0290  16.0290  19.0490  19.0490

          k =-0.5000-0.5000 0.3483 (  5776 PWs)   bands (ev):

   -10.4785 -10.4785  -9.2207  -9.2207   0.7750   0.7750   3.4690   3.4690
     4.6140   4.6140   4.9239   4.9239   7.4963   7.4963   7.6553   7.6553
    16.3091  16.3091  19.9814  19.9814

          k =-0.5000-0.5000 0.5224 (  5808 PWs)   bands (ev):

   -10.0977 -10.0977  -8.9484  -8.9484  -0.1641  -0.1641   2.5031   2.5031
     4.7635   4.7635   4.8858   4.8858   7.7134   7.7134   7.7227   7.7227
    15.9322  15.9322  20.0416  20.0417

          k =-0.5000-0.5000 0.6966 (  5784 PWs)   bands (ev):

    -9.8164  -9.8164  -8.7544  -8.7544  -0.8183  -0.8183   1.8504   1.8504
     4.9569   4.9569   5.0094   5.0094   7.6646   7.6646   7.8629   7.8629
    15.5157  15.5157  19.6830  19.6830

     the Fermi energy is    12.9875 ev

!    total energy              =    -190.07141696 Ry
     estimated scf accuracy    <          3.1E-09 Ry
     smearing contrib. (-TS)   =      -0.00000000 Ry
     internal energy E=F+TS    =    -190.07141696 Ry

     The total energy is F=E-TS. E is the sum of the following terms:
     one-electron contribution =     -17.86902878 Ry
     hartree contribution      =      32.85475253 Ry
     xc contribution           =     -42.80388328 Ry
     ewald contribution        =    -124.24365392 Ry
     one-center paw contrib.   =     -38.00960352 Ry

     convergence has been achieved in  11 iterations

     Forces acting on atoms (cartesian axes, Ry/au):

     atom    1 type  1   force =     0.00000000    0.00000000   -0.00000000
     atom    2 type  1   force =     0.00000000    0.00000000    0.00000000
     atom    3 type  2   force =     0.01099191    0.01099191   -0.00000000
     atom    4 type  2   force =    -0.01099191   -0.01099191    0.00000000
     atom    5 type  2   force =    -0.01099191    0.01099191   -0.00000000
     atom    6 type  2   force =     0.01099191   -0.01099191    0.00000000

     Total force =     0.031090     Total SCF correction =     0.000034


     Computing stress (Cartesian axis) and pressure

          total   stress  (Ry/bohr**3)                   (kbar)     P=     -135.48
  -0.00083242   0.00000000   0.00000000         -122.45        0.00        0.00
   0.00000000  -0.00083242   0.00000000            0.00     -122.45        0.00
   0.00000000   0.00000000  -0.00109811            0.00        0.00     -161.54


     BFGS Geometry Optimization
     Energy error            =      1.4E-03 Ry
     Gradient error          =      1.1E-02 Ry/Bohr
     Cell gradient error     =      2.6E+01 kbar

     number of scf cycles    =   1
     number of bfgs steps    =   0

     enthalpy           new  =    -190.3866416385 Ry

     new trust radius        =       0.0163853584 bohr
     new conv_thr            =       0.0000000100 Ry

     new unit-cell volume =    342.26781 a.u.^3 (    50.71886 Ang^3 )
     density =      3.93424 g/cm^3

CELL_PARAMETERS (angstrom)
   4.309219050   0.000000000   0.000000000
   0.000000000   4.309219050   0.000000000
   0.000000000   0.000000000   2.731318250

ATOMIC_POSITIONS (angstrom)
Si               0.0000000000        0.0000000000       -0.0000000000
Si               2.1546095248        2.1546095248        1.3656591250
O                1.3250107724        1.3250107724       -0.0000000000
O                2.9842082773        2.9842082773        0.0000000000
O                0.8295987524        3.4796202972        1.3656591250
O                3.4796202972        0.8295987524        1.3656591250



     Writing config-only to output data dir ./SiO2.save/ :
     XML data file
     NEW-OLD atomic charge density approx. for the potential
     New effective cutoffs (rho, wfc):  403.18  100.85

     Check: negative core charge=   -0.000002

     total cpu time spent up to now is       95.5 secs

     Self-consistent Calculation

     iteration #  1     ecut=   100.00 Ry     beta= 0.70
     Davidson diagonalization with overlap
     ethr =  1.00E-06,  avg # of iterations =  7.4

     total cpu time spent up to now is      109.7 secs

     total energy              =    -190.07250902 Ry
     estimated scf accuracy    <       0.00022675 Ry

     iteration #  2     ecut=   100.00 Ry     beta= 0.70
     Davidson diagonalization with overlap
     ethr =  7.09E-07,  avg # of iterations =  2.0

     total cpu time spent up to now is      116.7 secs

     total energy              =    -190.07253881 Ry
     estimated scf accuracy    <       0.00000732 Ry

     iteration #  3     ecut=   100.00 Ry     beta= 0.70
     Davidson diagonalization with overlap
     ethr =  2.29E-08,  avg # of iterations =  2.1

     total cpu time spent up to now is      124.1 secs

     total energy              =    -190.07253982 Ry
     estimated scf accuracy    <       0.00000123 Ry

     iteration #  4     ecut=   100.00 Ry     beta= 0.70
     Davidson diagonalization with overlap
     ethr =  3.85E-09,  avg # of iterations =  2.0

     total cpu time spent up to now is      131.1 secs

     total energy              =    -190.07254009 Ry
     estimated scf accuracy    <       0.00000012 Ry

     iteration #  5     ecut=   100.00 Ry     beta= 0.70
     Davidson diagonalization with overlap
     ethr =  3.70E-10,  avg # of iterations =  1.9

     total cpu time spent up to now is      137.0 secs

     End of self-consistent calculation

          k = 0.0000 0.0000 0.0000 (  5773 PWs)   bands (ev):

   -12.4775  -9.2558  -9.2558  -9.1370  -1.0508   3.2848   3.2848   3.7084
     4.2497   4.4939   6.3514   6.3514   6.7793   8.4211   8.4211   9.2309
    13.4848  15.6348  17.1755  17.1755

          k = 0.0000 0.0000 0.1749 (  5793 PWs)   bands (ev):

   -12.3274  -9.1810  -9.1810  -9.1156  -0.9937   3.4153   3.4153   3.8172
     3.8744   4.2846   5.8254   5.8254   6.1548   8.3189   8.3189   9.1088
    14.1190  16.4138  17.8429  17.8429

          k = 0.0000 0.0000 0.3498 (  5777 PWs)   bands (ev):

   -11.8939  -9.1102  -8.9827  -8.9827  -0.8634   3.0531   3.4307   3.7873
     3.7873   4.3596   4.6831   4.6831   5.1407   7.9876   7.9876   8.7188
    15.2713  17.9364  18.9171  19.3281

          k = 0.0000 0.0000 0.5247 (  5772 PWs)   bands (ev):

   -11.2329  -9.2742  -8.7387  -8.7387  -0.6847   2.0100   2.7299   3.5605
     3.5605   4.3484   4.3484   4.3862   5.1215   7.4570   7.4570   8.0334
    16.1216  18.4230  19.3817  20.5577

          k = 0.0000 0.0000 0.6997 (  5792 PWs)   bands (ev):

   -10.4556  -9.7393  -8.5668  -8.5668  -0.2485   0.6703   2.9010   2.9010
     3.0240   3.6646   4.8729   4.8729   6.0796   6.9302   6.9302   7.1054
    16.8320  17.7029  20.4928  20.8194

          k = 0.0000 0.2494 0.0000 (  5788 PWs)   bands (ev):

   -12.1877 -10.2431  -9.1220  -8.7163  -0.6174   2.0218   3.6049   4.4718
     4.5067   5.3718   5.8518   6.4664   6.8712   7.2655   8.3234   8.8054
    14.4476  16.0068  17.2987  17.3988

          k = 0.0000 0.2494 0.1749 (  5773 PWs)   bands (ev):

   -12.0427 -10.1478  -9.0571  -8.6942  -0.5268   2.1272   3.2486   4.2612
     4.6479   4.8215   5.7962   6.0155   6.1624   7.5340   8.2110   8.7763
    14.8840  16.7049  17.9265  18.0104

          k = 0.0000 0.2494 0.3498 (  5790 PWs)   bands (ev):

   -11.6265  -9.9001  -8.8913  -8.6648  -0.3268   2.3538   2.4121   3.2498
     4.1963   4.8719   5.0667   5.4358   5.6515   7.6165   7.8661   8.5729
    15.7100  17.9589  19.0535  19.1880

          k = 0.0000 0.2494 0.5247 (  5767 PWs)   bands (ev):

   -11.0015  -9.6504  -8.7104  -8.6902  -0.2073   1.6226   1.9921   2.7638
     3.4814   3.7360   5.3860   5.4159   5.8276   7.3644   7.4369   8.1222
    16.3596  18.1566  18.8775  19.5755

          k = 0.0000 0.2494 0.6997 (  5764 PWs)   bands (ev):

   -10.2965  -9.7449  -8.6801  -8.6294  -0.0514   0.5419   2.1687   2.5002
     3.0190   3.1862   5.4455   5.6664   6.4175   7.0154   7.1043   7.5192
    16.9029  17.5452  18.9757  19.2807

          k = 0.0000-0.4989 0.0000 (  5794 PWs)   bands (ev):

   -11.3755 -11.3755  -8.8299  -8.8299   0.4921   0.4921   4.9577   4.9577
     5.0747   5.0747   5.7592   5.7592   6.7209   6.7209   8.2361   8.2361
    15.9019  15.9019  17.8012  17.8012

          k = 0.0000-0.4989 0.1749 (  5786 PWs)   bands (ev):

   -11.2476 -11.2476  -8.7901  -8.7901   0.6148   0.6148   3.8152   3.8152
     5.3522   5.3522   5.9429   5.9429   6.5138   6.5138   8.1702   8.1702
    16.3221  16.3221  18.4763  18.4763

          k = 0.0000-0.4989 0.3498 (  5772 PWs)   bands (ev):

   -10.8887 -10.8887  -8.7062  -8.7062   0.9329   0.9329   2.3971   2.3971
     4.5633   4.5633   6.1662   6.1662   6.5184   6.5184   7.9939   7.9939
    16.9844  16.9844  19.1943  19.1944

          k = 0.0000-0.4989 0.5247 (  5776 PWs)   bands (ev):

   -10.3858 -10.3858  -8.6717  -8.6717   0.9514   0.9514   1.5671   1.5671
     3.6178   3.6178   6.0101   6.0101   6.8237   6.8237   7.8119   7.8119
    17.2082  17.2082  18.5571  18.5571

          k = 0.0000-0.4989 0.6997 (  5770 PWs)   bands (ev):

    -9.9439  -9.9439  -8.7429  -8.7429   0.3623   0.3623   1.6824   1.6824
     3.1727   3.1727   5.7141   5.7141   7.0908   7.0908   7.7036   7.7036
    17.1585  17.1585  18.2036  18.2036

          k = 0.2494 0.2494 0.0000 (  5792 PWs)   bands (ev):

   -11.9186 -10.4088  -9.3979  -8.7597  -0.1194   2.0530   3.3211   4.6796
     4.9999   5.5364   5.7873   6.2986   6.8067   6.8733   7.9307   8.5036
    14.9067  16.1157  17.4127  18.0445

          k = 0.2494 0.2494 0.1749 (  5789 PWs)   bands (ev):

   -11.7791 -10.3120  -9.3185  -8.7290  -0.0385   1.8992   3.4270   4.2015
     4.7365   4.9601   5.9040   5.9440   6.2205   7.2616   7.9068   8.5533
    15.2847  16.7012  17.9870  18.6422

          k = 0.2494 0.2494 0.3498 (  5785 PWs)   bands (ev):

   -11.3814 -10.0592  -9.1070  -8.6738   0.0795   1.4278   3.0308   3.5781
     3.9887   4.3956   4.9392   5.8402   6.3057   7.3644   7.7971   8.4723
    15.8925  17.5130  18.9526  19.9103

          k = 0.2494 0.2494 0.5247 (  5790 PWs)   bands (ev):

   -10.7957  -9.7828  -8.8452  -8.6774  -0.1611   0.9667   2.1093   2.9095
     3.2039   4.4392   4.5110   6.2873   6.3051   7.2399   7.5334   8.1708
    16.1929  17.2800  19.0410  20.3575

          k = 0.2494 0.2494 0.6997 (  5779 PWs)   bands (ev):

   -10.1693  -9.7529  -8.7393  -8.6595  -0.4968   0.4318   2.1245   2.2904
     2.5355   4.2925   4.9330   6.3526   6.8225   7.0091   7.2368   7.7524
    16.3128  16.9043  18.7660  20.3040

          k = 0.2494-0.4989 0.0000 (  5778 PWs)   bands (ev):

   -11.1944 -11.1944  -9.1521  -9.1521   1.0180   1.0180   4.3954   4.3954
     5.2252   5.2252   6.1573   6.1573   6.5170   6.5170   7.8965   7.8965
    15.7613  15.7613  18.1978  18.1978

          k = 0.2494-0.4989 0.1749 (  5790 PWs)   bands (ev):

   -11.0726 -11.0726  -9.0915  -9.0915   1.0187   1.0187   3.8842   3.8842
     5.0606   5.0606   5.8721   5.8721   6.6286   6.6286   7.9689   7.9689
    16.1539  16.1539  18.7783  18.7783

          k = 0.2494-0.4989 0.3498 (  5758 PWs)   bands (ev):

   -10.7347 -10.7347  -8.9427  -8.9427   0.8210   0.8210   3.0717   3.0717
     4.1748   4.1748   5.8313   5.8313   6.8402   6.8402   7.9783   7.9783
    16.5894  16.5894  19.9658  19.9658

          k = 0.2494-0.4989 0.5247 (  5790 PWs)   bands (ev):

   -10.2763 -10.2763  -8.7976  -8.7976   0.1757   0.1757   2.5761   2.5761
     3.4443   3.4443   5.9324   5.9324   7.0399   7.0399   7.8740   7.8740
    16.3992  16.3992  19.6016  19.6016

          k = 0.2494-0.4989 0.6997 (  5794 PWs)   bands (ev):

    -9.9009  -9.9009  -8.7452  -8.7452  -0.3829  -0.3829   2.0785   2.0785
     3.4576   3.4576   5.9428   5.9428   7.1500   7.1500   7.8005   7.8005
    16.1064  16.1064  19.2505  19.2505

          k =-0.4989-0.4989 0.0000 (  5804 PWs)   bands (ev):

   -10.9458 -10.9458  -9.5334  -9.5334   1.7236   1.7236   3.7061   3.7061
     5.4431   5.4431   6.2466   6.2466   6.8344   6.8344   7.2157   7.2157
    15.6789  15.6789  18.5998  18.5999

          k =-0.4989-0.4989 0.1749 (  5788 PWs)   bands (ev):

   -10.8342 -10.8342  -9.4498  -9.4498   1.5018   1.5018   3.7406   3.7406
     5.1913   5.1913   5.3974   5.3974   7.2864   7.2864   7.3239   7.3239
    16.0491  16.0491  19.0988  19.0988

          k =-0.4989-0.4989 0.3498 (  5776 PWs)   bands (ev):

   -10.5315 -10.5315  -9.2262  -9.2262   0.7978   0.7978   3.4491   3.4491
     4.6262   4.6262   4.8623   4.8623   7.4720   7.4720   7.6377   7.6377
    16.3650  16.3650  20.0393  20.0393

          k =-0.4989-0.4989 0.5247 (  5808 PWs)   bands (ev):

   -10.1432 -10.1432  -8.9480  -8.9480  -0.1513  -0.1513   2.4917   2.4917
     4.7750   4.7750   4.8116   4.8116   7.6781   7.6781   7.6957   7.6957
    16.0026  16.0026  19.9749  19.9749

          k =-0.4989-0.4989 0.6997 (  5784 PWs)   bands (ev):

    -9.8558  -9.8558  -8.7494  -8.7494  -0.8163  -0.8163   1.8346   1.8346
     4.8804   4.8804   5.0357   5.0357   7.5980   7.5980   7.8499   7.8499
    15.5866  15.5866  19.5669  19.5669

     the Fermi energy is    12.8353 ev

!    total energy              =    -190.07254010 Ry
     estimated scf accuracy    <          3.7E-09 Ry
     smearing contrib. (-TS)   =      -0.00000000 Ry
     internal energy E=F+TS    =    -190.07254010 Ry

     The total energy is F=E-TS. E is the sum of the following terms:
     one-electron contribution =     -18.09186069 Ry
     hartree contribution      =      32.95380100 Ry
     xc contribution           =     -42.81734322 Ry
     ewald contribution        =    -124.10773074 Ry
     one-center paw contrib.   =     -38.00940645 Ry

     convergence has been achieved in   5 iterations

     Forces acting on atoms (cartesian axes, Ry/au):

     atom    1 type  1   force =     0.00000000    0.00000000    0.00000000
     atom    2 type  1   force =     0.00000000    0.00000000    0.00000000
     atom    3 type  2   force =     0.00666994    0.00666994   -0.00000000
     atom    4 type  2   force =    -0.00666994   -0.00666994    0.00000000
     atom    5 type  2   force =    -0.00666994    0.00666994   -0.00000000
     atom    6 type  2   force =     0.00666994   -0.00666994    0.00000000

     Total force =     0.018865     Total SCF correction =     0.000142


     Computing stress (Cartesian axis) and pressure

          total   stress  (Ry/bohr**3)                   (kbar)     P=     -126.12
  -0.00079682   0.00000000   0.00000000         -117.22        0.00        0.00
   0.00000000  -0.00079682   0.00000000            0.00     -117.22        0.00
   0.00000000   0.00000000  -0.00097844            0.00        0.00     -143.93

     Energy error            =      1.1E-03 Ry
     Gradient error          =      6.7E-03 Ry/Bohr
     Cell gradient error     =      1.8E+01 kbar

     number of scf cycles    =   2
     number of bfgs steps    =   1

     enthalpy           old  =    -190.3866416385 Ry
     enthalpy           new  =    -190.3877599570 Ry

     CASE: enthalpy          _new < enthalpy          _old

     new trust radius        =       0.0181039266 bohr
     new conv_thr            =       0.0000000007 Ry

     new unit-cell volume =    344.49586 a.u.^3 (    51.04902 Ang^3 )
     density =      3.90880 g/cm^3

CELL_PARAMETERS (angstrom)
   4.330303308   0.000000000   0.000000000
   0.000000000   4.330303308   0.000000000
   0.000000000   0.000000000   2.722392702

ATOMIC_POSITIONS (angstrom)
Si               0.0000000000        0.0000000000       -0.0000000000
Si               2.1651516540        2.1651516540        1.3611963509
O                1.3380789869        1.3380789869       -0.0000000000
O                2.9922243212        2.9922243212        0.0000000000
O                0.8270726671        3.5032306409        1.3611963509
O                3.5032306409        0.8270726671        1.3611963509



     Writing config-only to output data dir ./SiO2.save/ :
     XML data file
     NEW-OLD atomic charge density approx. for the potential
     New effective cutoffs (rho, wfc):  405.44  101.50

     Check: negative core charge=   -0.000002

     total cpu time spent up to now is      144.8 secs

     Self-consistent Calculation

     iteration #  1     ecut=   100.00 Ry     beta= 0.70
     Davidson diagonalization with overlap
     ethr =  1.00E-06,  avg # of iterations =  7.6

     total cpu time spent up to now is      159.7 secs

     total energy              =    -190.07130004 Ry
     estimated scf accuracy    <       0.00028360 Ry

     iteration #  2     ecut=   100.00 Ry     beta= 0.70
     Davidson diagonalization with overlap
     ethr =  8.86E-07,  avg # of iterations =  2.0

     total cpu time spent up to now is      166.6 secs

     total energy              =    -190.07134688 Ry
     estimated scf accuracy    <       0.00003728 Ry

     iteration #  3     ecut=   100.00 Ry     beta= 0.70
     Davidson diagonalization with overlap
     ethr =  1.17E-07,  avg # of iterations =  2.0

     total cpu time spent up to now is      174.0 secs

     total energy              =    -190.07135406 Ry
     estimated scf accuracy    <       0.00000395 Ry

     iteration #  4     ecut=   100.00 Ry     beta= 0.70
     Davidson diagonalization with overlap
     ethr =  1.24E-08,  avg # of iterations =  2.0

     total cpu time spent up to now is      180.9 secs

     total energy              =    -190.07135499 Ry
     estimated scf accuracy    <       0.00000014 Ry

     iteration #  5     ecut=   100.00 Ry     beta= 0.70
     Davidson diagonalization with overlap
     ethr =  4.46E-10,  avg # of iterations =  2.2

     total cpu time spent up to now is      188.6 secs

     total energy              =    -190.07135502 Ry
     estimated scf accuracy    <       0.00000001 Ry

     iteration #  6     ecut=   100.00 Ry     beta= 0.70
     Davidson diagonalization with overlap
     ethr =  4.37E-11,  avg # of iterations =  2.2

     total cpu time spent up to now is      196.2 secs

     total energy              =    -190.07135502 Ry
     estimated scf accuracy    <          1.7E-09 Ry

     iteration #  7     ecut=   100.00 Ry     beta= 0.70
     Davidson diagonalization with overlap
     ethr =  5.21E-12,  avg # of iterations =  2.0

     total cpu time spent up to now is      203.3 secs

     End of self-consistent calculation

          k = 0.0000 0.0000 0.0000 (  5773 PWs)   bands (ev):

   -12.5520  -9.3461  -9.3461  -9.3276  -1.0381   3.2041   3.2041   3.6643
     4.2093   4.3552   6.2631   6.2631   6.6253   8.3061   8.3061   9.0963
    13.3432  15.5511  17.1340  17.1340

          k = 0.0000 0.0000 0.1755 (  5793 PWs)   bands (ev):

   -12.4015  -9.2995  -9.2700  -9.2700  -0.9828   3.3366   3.3366   3.7613
     3.8308   4.1545   5.7335   5.7335   5.9953   8.2062   8.2062   8.9827
    13.9828  16.3314  17.7938  17.7938

          k = 0.0000 0.0000 0.3510 (  5777 PWs)   bands (ev):

   -11.9674  -9.2737  -9.0680  -9.0680  -0.8659   2.9705   3.3040   3.7138
     3.7138   4.3170   4.5835   4.5835   4.9923   7.8797   7.8797   8.6147
    15.1455  17.8283  18.8332  19.2314

          k = 0.0000 0.0000 0.5265 (  5772 PWs)   bands (ev):

   -11.3077  -9.4062  -8.8192  -8.8192  -0.7274   1.8749   2.6385   3.4470
     3.4470   4.2716   4.2909   4.2909   5.0790   7.3497   7.3497   7.9560
    15.9909  18.2558  19.2531  20.2852

          k = 0.0000 0.0000 0.7019 (  5792 PWs)   bands (ev):

   -10.5375  -9.8402  -8.6436  -8.6436  -0.3427   0.5436   2.7818   2.7818
     2.9370   3.5724   4.8331   4.8331   6.0336   6.8122   6.8122   7.0486
    16.6745  17.5254  20.3602  20.4276

          k = 0.0000 0.2482 0.0000 (  5788 PWs)   bands (ev):

   -12.2679 -10.3629  -9.2183  -8.8531  -0.6307   1.9312   3.5271   4.4249
     4.4615   5.2842   5.7642   6.3710   6.7367   7.1509   8.1984   8.6716
    14.3025  15.9012  17.2452  17.3262

          k = 0.0000 0.2482 0.1755 (  5773 PWs)   bands (ev):

   -12.1225 -10.2668  -9.1516  -8.8251  -0.5400   2.0382   3.1839   4.2004
     4.5683   4.7650   5.6916   5.9139   6.0389   7.4125   8.0891   8.6473
    14.7445  16.5999  17.8630  17.9335

          k = 0.0000 0.2482 0.3510 (  5790 PWs)   bands (ev):

   -11.7056 -10.0180  -8.9808  -8.7773  -0.3459   2.2676   2.3393   3.1576
     4.1214   4.7529   4.9855   5.3494   5.5540   7.4962   7.7508   8.4577
    15.5749  17.8308  18.9541  19.0393

          k = 0.0000 0.2482 0.5265 (  5767 PWs)   bands (ev):

   -11.0819  -9.7682  -8.7921  -8.7739  -0.2601   1.5110   1.9210   2.6886
     3.3772   3.6157   5.3051   5.3404   5.7644   7.2504   7.3188   8.0255
    16.2184  17.9988  18.7081  19.2985

          k = 0.0000 0.2482 0.7019 (  5764 PWs)   bands (ev):

   -10.3846  -9.8513  -8.7483  -8.7029  -0.1494   0.4248   2.1070   2.4244
     2.9051   3.0790   5.3876   5.6152   6.3283   6.8995   6.9943   7.4327
    16.7512  17.3860  18.7371  18.9985

          k = 0.0000-0.4965 0.0000 (  5794 PWs)   bands (ev):

   -11.4721 -11.4721  -8.9437  -8.9437   0.4318   0.4318   4.8866   4.8866
     5.0094   5.0094   5.6959   5.6959   6.6071   6.6071   8.0907   8.0907
    15.7544  15.7544  17.7428  17.7428

          k = 0.0000-0.4965 0.1755 (  5786 PWs)   bands (ev):

   -11.3437 -11.3437  -8.9006  -8.9006   0.5564   0.5564   3.7520   3.7520
     5.2703   5.2703   5.8827   5.8827   6.3888   6.3888   8.0297   8.0297
    16.1761  16.1761  18.4213  18.4213

          k = 0.0000-0.4965 0.3510 (  5772 PWs)   bands (ev):

   -10.9839 -10.9839  -8.8066  -8.8066   0.8801   0.8801   2.3194   2.3194
     4.4702   4.4702   6.1003   6.1003   6.3929   6.3929   7.8648   7.8648
    16.8299  16.8299  18.9972  18.9972

          k = 0.0000-0.4965 0.5265 (  5776 PWs)   bands (ev):

   -10.4823 -10.4823  -8.7555  -8.7555   0.8659   0.8659   1.5104   1.5104
     3.5061   3.5061   5.9493   5.9493   6.7026   6.7026   7.6946   7.6946
    17.0508  17.0508  18.3530  18.3530

          k = 0.0000-0.4965 0.7019 (  5770 PWs)   bands (ev):

   -10.0470 -10.0470  -8.8077  -8.8077   0.2484   0.2484   1.6437   1.6437
     3.0516   3.0516   5.6598   5.6598   6.9678   6.9678   7.5965   7.5965
    17.0202  17.0202  17.9611  17.9611

          k = 0.2482 0.2482 0.0000 (  5792 PWs)   bands (ev):

   -12.0050 -10.5369  -9.4813  -8.8819  -0.1535   1.9735   3.2221   4.6257
     4.9522   5.4744   5.6923   6.2140   6.6834   6.7508   7.8149   8.3880
    14.7581  15.9795  17.3207  17.9842

          k = 0.2482 0.2482 0.1755 (  5789 PWs)   bands (ev):

   -11.8651 -10.4387  -9.4007  -8.8469  -0.0700   1.8294   3.3302   4.1249
     4.6522   4.9185   5.8129   5.8387   6.1367   7.1168   7.7938   8.4336
    15.1440  16.5682  17.8957  18.5818

          k = 0.2482 0.2482 0.3510 (  5785 PWs)   bands (ev):

   -11.4666 -10.1823  -9.1860  -8.7782   0.0510   1.3693   2.9275   3.4900
     3.8897   4.3373   4.8179   5.7604   6.2277   7.2139   7.6896   8.3515
    15.7626  17.3811  18.8124  19.7801

          k = 0.2482 0.2482 0.5265 (  5790 PWs)   bands (ev):

   -10.8819  -9.9012  -8.9200  -8.7603  -0.2129   0.9033   2.0034   2.8283
     3.1156   4.2977   4.4466   6.2129   6.2293   7.0938   7.4246   8.0610
    16.0666  17.1368  18.8223  20.0575

          k = 0.2482 0.2482 0.7019 (  5779 PWs)   bands (ev):

   -10.2625  -9.8621  -8.8043  -8.7312  -0.5705   0.3297   2.0549   2.2042
     2.4477   4.1544   4.8877   6.2782   6.7204   6.8656   7.1394   7.6548
    16.1900  16.7463  18.5071  19.9674

          k = 0.2482-0.4965 0.0000 (  5778 PWs)   bands (ev):

   -11.2996 -11.2996  -9.2510  -9.2510   0.9522   0.9522   4.3004   4.3004
     5.1517   5.1517   6.1010   6.1010   6.4157   6.4157   7.7798   7.7798
    15.6014  15.6014  18.1172  18.1172

          k = 0.2482-0.4965 0.1755 (  5790 PWs)   bands (ev):

   -11.1771 -11.1771  -9.1882  -9.1882   0.9598   0.9598   3.7996   3.7996
     4.9775   4.9775   5.7915   5.7915   6.5310   6.5310   7.8487   7.8487
    16.0037  16.0037  18.7053  18.7053

          k = 0.2482-0.4965 0.3510 (  5758 PWs)   bands (ev):

   -10.8376 -10.8376  -9.0324  -9.0324   0.7768   0.7768   2.9753   2.9753
     4.0962   4.0962   5.7225   5.7225   6.7412   6.7412   7.8534   7.8534
    16.4582  16.4582  19.7602  19.7602

          k = 0.2482-0.4965 0.5265 (  5790 PWs)   bands (ev):

   -10.3787 -10.3787  -8.8759  -8.8759   0.1224   0.1224   2.4961   2.4961
     3.3416   3.3416   5.8330   5.8330   6.9277   6.9277   7.7515   7.7515
    16.2782  16.2782  19.3496  19.3496

          k = 0.2482-0.4965 0.7019 (  5794 PWs)   bands (ev):

   -10.0060 -10.0060  -8.8111  -8.8111  -0.4521  -0.4521   2.0044   2.0044
     3.3519   3.3519   5.8594   5.8594   7.0141   7.0141   7.6901   7.6901
    15.9861  15.9861  18.9909  18.9909

          k =-0.4965-0.4965 0.0000 (  5804 PWs)   bands (ev):

   -11.0673 -11.0673  -9.6105  -9.6105   1.6599   1.6599   3.5870   3.5870
     5.3537   5.3537   6.1654   6.1654   6.8047   6.8047   7.0985   7.0985
    15.5119  15.5119  18.4950  18.4950

          k =-0.4965-0.4965 0.1755 (  5788 PWs)   bands (ev):

   -10.9544 -10.9544  -9.5258  -9.5258   1.4487   1.4487   3.6261   3.6261
     5.0782   5.0782   5.3462   5.3462   7.1709   7.1709   7.2505   7.2505
    15.8973  15.8973  19.0016  19.0016

          k =-0.4965-0.4965 0.3510 (  5776 PWs)   bands (ev):

   -10.6479 -10.6479  -9.2996  -9.2996   0.7574   0.7574   3.3648   3.3648
     4.5609   4.5609   4.7126   4.7126   7.3610   7.3610   7.5303   7.5303
    16.2460  16.2460  19.9503  19.9503

          k =-0.4965-0.4965 0.5265 (  5808 PWs)   bands (ev):

   -10.2545 -10.2545  -9.0177  -9.0177  -0.1958  -0.1958   2.4240   2.4240
     4.6470   4.6470   4.7085   4.7085   7.5399   7.5399   7.5904   7.5904
    15.9036  15.9036  19.7240  19.7240

          k =-0.4965-0.4965 0.7019 (  5784 PWs)   bands (ev):

    -9.9631  -9.9631  -8.8163  -8.8163  -0.8685  -0.8685   1.7661   1.7661
     4.7133   4.7133   4.9867   4.9867   7.4345   7.4345   7.7489   7.7489
    15.4919  15.4919  19.2790  19.2790

     the Fermi energy is    12.5228 ev

!    total energy              =    -190.07135502 Ry
     estimated scf accuracy    <          1.2E-11 Ry
     smearing contrib. (-TS)   =      -0.00000000 Ry
     internal energy E=F+TS    =    -190.07135502 Ry

     The total energy is F=E-TS. E is the sum of the following terms:
     one-electron contribution =     -18.76193642 Ry
     hartree contribution      =      33.17326815 Ry
     xc contribution           =     -42.80453492 Ry
     ewald contribution        =    -123.66770407 Ry
     one-center paw contrib.   =     -38.01044776 Ry

     convergence has been achieved in   7 iterations

     Forces acting on atoms (cartesian axes, Ry/au):

     atom    1 type  1   force =     0.00000000    0.00000000    0.00000000
     atom    2 type  1   force =     0.00000000    0.00000000    0.00000000
     atom    3 type  2   force =     0.00314851    0.00314851    0.00000000
     atom    4 type  2   force =    -0.00314851   -0.00314851   -0.00000000
     atom    5 type  2   force =    -0.00314851    0.00314851    0.00000000
     atom    6 type  2   force =     0.00314851   -0.00314851   -0.00000000

     Total force =     0.008905     Total SCF correction =     0.000008


     Computing stress (Cartesian axis) and pressure

          total   stress  (Ry/bohr**3)                   (kbar)     P=     -129.36
  -0.00084522   0.00000000   0.00000000         -124.34        0.00        0.00
   0.00000000  -0.00084522   0.00000000            0.00     -124.34        0.00
   0.00000000   0.00000000  -0.00094775            0.00        0.00     -139.42

     Energy error            =      8.7E-04 Ry
     Gradient error          =      3.1E-03 Ry/Bohr
     Cell gradient error     =      1.1E+01 kbar

     number of scf cycles    =   3
     number of bfgs steps    =   2

     enthalpy           old  =    -190.3877599570 Ry
     enthalpy           new  =    -190.3886268641 Ry

     CASE: enthalpy          _new < enthalpy          _old

     new trust radius        =       0.0217013110 bohr
     new conv_thr            =       0.0000000003 Ry

     new unit-cell volume =    347.28941 a.u.^3 (    51.46298 Ang^3 )
     density =      3.87736 g/cm^3

CELL_PARAMETERS (angstrom)
   4.355618562   0.000000000   0.000000000
   0.000000000   4.355618562   0.000000000
   0.000000000   0.000000000   2.712659342

ATOMIC_POSITIONS (angstrom)
Si               0.0000000000        0.0000000000        0.0000000000
Si               2.1778092810        2.1778092810        1.3563296709
O                1.3528913103        1.3528913103       -0.0000000000
O                3.0027272518        3.0027272518        0.0000000000
O                0.8249179707        3.5307005913        1.3563296709
O                3.5307005913        0.8249179707        1.3563296709



     Writing config-only to output data dir ./SiO2.save/ :
     XML data file
     NEW-OLD atomic charge density approx. for the potential
     New effective cutoffs (rho, wfc):  407.91  102.22

     Check: negative core charge=   -0.000002

     total cpu time spent up to now is      211.4 secs

     Self-consistent Calculation

     iteration #  1     ecut=   100.00 Ry     beta= 0.70
     Davidson diagonalization with overlap
     ethr =  1.00E-06,  avg # of iterations =  7.8

     total cpu time spent up to now is      227.0 secs

     total energy              =    -190.06907480 Ry
     estimated scf accuracy    <       0.00032869 Ry

     iteration #  2     ecut=   100.00 Ry     beta= 0.70
     Davidson diagonalization with overlap
     ethr =  1.03E-06,  avg # of iterations =  2.0

     total cpu time spent up to now is      234.4 secs

     total energy              =    -190.06913375 Ry
     estimated scf accuracy    <       0.00005395 Ry

     iteration #  3     ecut=   100.00 Ry     beta= 0.70
     Davidson diagonalization with overlap
     ethr =  1.69E-07,  avg # of iterations =  2.0

     total cpu time spent up to now is      242.4 secs

     total energy              =    -190.06914383 Ry
     estimated scf accuracy    <       0.00000416 Ry

     iteration #  4     ecut=   100.00 Ry     beta= 0.70
     Davidson diagonalization with overlap
     ethr =  1.30E-08,  avg # of iterations =  2.0

     total cpu time spent up to now is      249.5 secs

     total energy              =    -190.06914480 Ry
     estimated scf accuracy    <       0.00000016 Ry

     iteration #  5     ecut=   100.00 Ry     beta= 0.70
     Davidson diagonalization with overlap
     ethr =  4.93E-10,  avg # of iterations =  2.2

     total cpu time spent up to now is      257.1 secs

     total energy              =    -190.06914484 Ry
     estimated scf accuracy    <       0.00000001 Ry

     iteration #  6     ecut=   100.00 Ry     beta= 0.70
     Davidson diagonalization with overlap
     ethr =  4.01E-11,  avg # of iterations =  2.5

     total cpu time spent up to now is      264.8 secs

     total energy              =    -190.06914484 Ry
     estimated scf accuracy    <          2.6E-09 Ry

     iteration #  7     ecut=   100.00 Ry     beta= 0.70
     Davidson diagonalization with overlap
     ethr =  8.14E-12,  avg # of iterations =  2.0

     total cpu time spent up to now is      271.9 secs

     End of self-consistent calculation

          k = 0.0000 0.0000 0.0000 (  5773 PWs)   bands (ev):

   -12.6419  -9.5475  -9.4587  -9.4587  -1.0366   3.1026   3.1026   3.6068
     4.1582   4.1918   6.1564   6.1564   6.4496   8.1637   8.1637   8.9309
    13.1608  15.4485  17.0683  17.0683

          k = 0.0000 0.0000 0.1761 (  5793 PWs)   bands (ev):

   -12.4910  -9.5123  -9.3812  -9.3812  -0.9825   3.2372   3.2372   3.6926
     3.7737   4.0016   5.6228   5.6228   5.8112   8.0668   8.0668   8.8267
    13.8062  16.2283  17.7169  17.7169

          k = 0.0000 0.0000 0.3522 (  5777 PWs)   bands (ev):

   -12.0565  -9.4647  -9.1751  -9.1751  -0.8778   2.8710   3.1570   3.6197
     3.6197   4.2607   4.4646   4.4646   4.8171   7.7470   7.7470   8.4839
    14.9791  17.6890  18.7241  19.0856

          k = 0.0000 0.0000 0.5283 (  5772 PWs)   bands (ev):

   -11.3986  -9.5628  -8.9209  -8.9209  -0.7818   1.7188   2.5281   3.3125
     3.3125   4.1332   4.2144   4.2144   5.0223   7.2195   7.2195   7.8561
    15.8210  18.0463  19.0908  19.9361

          k = 0.0000 0.0000 0.7045 (  5792 PWs)   bands (ev):

   -10.6372  -9.9619  -8.7413  -8.7413  -0.4536   0.3969   2.6409   2.6409
     2.8307   3.4595   4.7760   4.7760   5.9721   6.6714   6.6714   6.9735
    16.4769  17.3054  19.9819  20.1892

          k = 0.0000 0.2468 0.0000 (  5788 PWs)   bands (ev):

   -12.3645 -10.5078  -9.3377  -9.0142  -0.6565   1.8213   3.4300   4.3662
     4.3992   5.1731   5.6585   6.2566   6.5818   7.0098   8.0450   8.5078
    14.1172  15.7719  17.1666  17.2286

          k = 0.0000 0.2468 0.1761 (  5773 PWs)   bands (ev):

   -12.2187 -10.4109  -9.2690  -8.9798  -0.5654   1.9302   3.1034   4.1238
     4.4697   4.6908   5.5636   5.7926   5.8940   7.2655   7.9398   8.4891
    14.5649  16.4687  17.7693  17.8269

          k = 0.0000 0.2468 0.3522 (  5790 PWs)   bands (ev):

   -11.8013 -10.1604  -9.0925  -8.9125  -0.3763   2.1635   2.2511   3.0449
     4.0281   4.6134   4.8797   5.2474   5.4328   7.3509   7.6104   8.3155
    15.3989  17.6666  18.8013  18.8340

          k = 0.0000 0.2468 0.5283 (  5767 PWs)   bands (ev):

   -11.1794  -9.9092  -8.8953  -8.8789  -0.3265   1.3800   1.8341   2.5943
     3.2523   3.4744   5.2010   5.2439   5.6850   7.1136   7.1767   7.9052
    16.0357  17.7992  18.4867  18.9658

          k = 0.0000 0.2468 0.7045 (  5764 PWs)   bands (ev):

   -10.4912  -9.9784  -8.8369  -8.7968  -0.2651   0.2879   2.0286   2.3280
     2.7707   2.9539   5.3104   5.5444   6.2174   6.7598   6.8645   7.3262
    16.5580  17.1851  18.4419  18.6589

          k = 0.0000-0.4936 0.0000 (  5794 PWs)   bands (ev):

   -11.5883 -11.5883  -9.0822  -9.0822   0.3559   0.3559   4.7936   4.7936
     4.9297   4.9297   5.6130   5.6130   6.4731   6.4731   7.9145   7.9145
    15.5699  15.5699  17.6659  17.6659

          k = 0.0000-0.4936 0.1761 (  5786 PWs)   bands (ev):

   -11.4593 -11.4593  -9.0354  -9.0354   0.4826   0.4826   3.6732   3.6732
     5.1691   5.1691   5.8021   5.8021   6.2412   6.2412   7.8595   7.8595
    15.9914  15.9914  18.3463  18.3463

          k = 0.0000-0.4936 0.3522 (  5772 PWs)   bands (ev):

   -11.0986 -11.0986  -8.9302  -8.9302   0.8122   0.8122   2.2260   2.2260
     4.3572   4.3572   6.0129   6.0129   6.2437   6.2437   7.7086   7.7086
    16.6323  16.6323  18.7509  18.7509

          k = 0.0000-0.4936 0.5283 (  5776 PWs)   bands (ev):

   -10.5984 -10.5984  -8.8607  -8.8607   0.7615   0.7615   1.4409   1.4409
     3.3731   3.3731   5.8680   5.8680   6.5574   6.5574   7.5531   7.5531
    16.8472  16.8472  18.1025  18.1025

          k = 0.0000-0.4936 0.7045 (  5770 PWs)   bands (ev):

   -10.1701 -10.1701  -8.8923  -8.8923   0.1151   0.1151   1.5908   1.5908
     2.9091   2.9091   5.5862   5.5862   6.8204   6.8204   7.4670   7.4670
    16.8400  16.8400  17.6665  17.6665

          k = 0.2468 0.2468 0.0000 (  5792 PWs)   bands (ev):

   -12.1090 -10.6891  -9.5860  -9.0288  -0.2020   1.8748   3.1024   4.5591
     4.8862   5.3915   5.5795   6.1112   6.5398   6.5995   7.6720   8.2453
    14.5713  15.8132  17.2031  17.9000

          k = 0.2468 0.2468 0.1761 (  5789 PWs)   bands (ev):

   -11.9686 -10.5894  -9.5042  -8.9890  -0.1154   1.7422   3.2132   4.0328
     4.5484   4.8595   5.7025   5.7133   6.0315   6.9442   7.6545   8.2866
    14.9646  16.4025  17.7740  18.4940

          k = 0.2468 0.2468 0.3522 (  5785 PWs)   bands (ev):

   -11.5694 -10.3289  -9.2861  -8.9057   0.0100   1.2965   2.8055   3.3840
     3.7687   4.2587   4.6751   5.6620   6.1279   7.0357   7.5574   8.2041
    15.5928  17.2076  18.6227  19.5812

          k = 0.2468 0.2468 0.5283 (  5790 PWs)   bands (ev):

   -10.9861 -10.0420  -9.0156  -8.8647  -0.2780   0.8229   1.8808   2.7294
     3.0071   4.1317   4.3618   6.1170   6.1348   6.9222   7.2923   7.9267
    15.8997  16.9505  18.5538  19.6991

          k = 0.2468 0.2468 0.7045 (  5779 PWs)   bands (ev):

   -10.3749  -9.9919  -8.8893  -8.8232  -0.6591   0.2064   1.9715   2.0996
     2.3403   3.9928   4.8245   6.1820   6.5934   6.6980   7.0228   7.5352
    16.0277  16.5448  18.1984  19.5740

          k = 0.2468-0.4936 0.0000 (  5778 PWs)   bands (ev):

   -11.4255 -11.4255  -9.3725  -9.3725   0.8689   0.8689   4.1825   4.1825
     5.0629   5.0629   6.0236   6.0236   6.2955   6.2955   7.6367   7.6367
    15.4065  15.4065  18.0137  18.0137

          k = 0.2468-0.4936 0.1761 (  5790 PWs)   bands (ev):

   -11.3022 -11.3022  -9.3072  -9.3072   0.8843   0.8843   3.6964   3.6964
     4.8748   4.8748   5.6892   5.6892   6.4132   6.4132   7.7022   7.7022
    15.8169  15.8169  18.6087  18.6087

          k = 0.2468-0.4936 0.3522 (  5758 PWs)   bands (ev):

   -10.9610 -10.9610  -9.1438  -9.1438   0.7188   0.7188   2.8598   2.8598
     3.9991   3.9991   5.5877   5.5877   6.6214   6.6214   7.7027   7.7027
    16.2873  16.2873  19.4733  19.4733

          k = 0.2468-0.4936 0.5283 (  5790 PWs)   bands (ev):

   -10.5014 -10.5014  -8.9748  -8.9748   0.0550   0.0550   2.3982   2.3982
     3.2182   3.2182   5.7092   5.7092   6.7933   6.7933   7.6050   7.6050
    16.1172  16.1172  19.0429  19.0429

          k = 0.2468-0.4936 0.7045 (  5794 PWs)   bands (ev):

   -10.1315 -10.1315  -8.8968  -8.8968  -0.5369  -0.5369   1.9129   1.9129
     3.2253   3.2253   5.7553   5.7553   6.8523   6.8523   7.5577   7.5577
    15.8258  15.8258  18.6765  18.6765

          k =-0.4936-0.4936 0.0000 (  5804 PWs)   bands (ev):

   -11.2106 -11.2106  -9.7080  -9.7080   1.5771   1.5771   3.4448   3.4448
     5.2481   5.2481   6.0665   6.0665   6.7549   6.7549   6.9561   6.9561
    15.3115  15.3115  18.3633  18.3633

          k =-0.4936-0.4936 0.1761 (  5788 PWs)   bands (ev):

   -11.0962 -11.0962  -9.6223  -9.6223   1.3785   1.3785   3.4896   3.4896
     4.9457   4.9457   5.2763   5.2763   7.0303   7.0303   7.1562   7.1562
    15.7107  15.7107  18.8772  18.8772

          k =-0.4936-0.4936 0.3522 (  5776 PWs)   bands (ev):

   -10.7857 -10.7857  -9.3931  -9.3931   0.7036   0.7036   3.2628   3.2628
     4.4744   4.4744   4.5382   4.5382   7.2254   7.2254   7.3998   7.3998
    16.0894  16.0894  19.8270  19.8271

          k =-0.4936-0.4936 0.5283 (  5808 PWs)   bands (ev):

   -10.3868 -10.3868  -9.1073  -9.1073  -0.2531  -0.2531   2.3407   2.3407
     4.4561   4.4561   4.6207   4.6207   7.3771   7.3771   7.4613   7.4613
    15.7668  15.7668  19.4075  19.4075

          k =-0.4936-0.4936 0.7045 (  5784 PWs)   bands (ev):

   -10.0910 -10.0910  -8.9030  -8.9030  -0.9341  -0.9341   1.6817   1.6817
     4.5201   4.5201   4.9196   4.9196   7.2439   7.2439   7.6244   7.6244
    15.3594  15.3594  18.9396  18.9396

     the Fermi energy is    12.3216 ev

!    total energy              =    -190.06914485 Ry
     estimated scf accuracy    <          6.8E-12 Ry
     smearing contrib. (-TS)   =      -0.00000000 Ry
     internal energy E=F+TS    =    -190.06914485 Ry

     The total energy is F=E-TS. E is the sum of the following terms:
     one-electron contribution =     -19.57676302 Ry
     hartree contribution      =      33.43848520 Ry
     xc contribution           =     -42.78805032 Ry
     ewald contribution        =    -123.13108597 Ry
     one-center paw contrib.   =     -38.01173073 Ry

     convergence has been achieved in   7 iterations

     Forces acting on atoms (cartesian axes, Ry/au):

     atom    1 type  1   force =     0.00000000    0.00000000    0.00000000
     atom    2 type  1   force =     0.00000000    0.00000000    0.00000000
     atom    3 type  2   force =     0.00001334    0.00001334    0.00000000
     atom    4 type  2   force =    -0.00001334   -0.00001334    0.00000000
     atom    5 type  2   force =    -0.00001334    0.00001334   -0.00000000
     atom    6 type  2   force =     0.00001334   -0.00001334   -0.00000000

     Total force =     0.000038     Total SCF correction =     0.000008
     SCF correction compared to forces is large: reduce conv_thr to get better values


     Computing stress (Cartesian axis) and pressure

          total   stress  (Ry/bohr**3)                   (kbar)     P=     -133.51
  -0.00090303   0.00000000   0.00000000         -132.84        0.00        0.00
   0.00000000  -0.00090303   0.00000000            0.00     -132.84        0.00
   0.00000000   0.00000000  -0.00091669            0.00        0.00     -134.85

     Energy error            =      3.6E-04 Ry
     Gradient error          =      1.3E-05 Ry/Bohr
     Cell gradient error     =      2.6E+00 kbar

     number of scf cycles    =   4
     number of bfgs steps    =   3

     enthalpy           old  =    -190.3886268641 Ry
     enthalpy           new  =    -190.3889894732 Ry

     CASE: enthalpy          _new < enthalpy          _old

     new trust radius        =       0.0033130959 bohr
     new conv_thr            =            1.0E-10 Ry

     new unit-cell volume =    347.81180 a.u.^3 (    51.54039 Ang^3 )
     density =      3.87153 g/cm^3

CELL_PARAMETERS (angstrom)
   4.359490319   0.000000000   0.000000000
   0.000000000   4.359490319   0.000000000
   0.000000000   0.000000000   2.711916277

ATOMIC_POSITIONS (angstrom)
Si               0.0000000000        0.0000000000        0.0000000000
Si               2.1797451595        2.1797451595        1.3559581385
O                1.3547313943        1.3547313943       -0.0000000000
O                3.0047589247        3.0047589247        0.0000000000
O                0.8250137652        3.5344765539        1.3559581385
O                3.5344765539        0.8250137652        1.3559581385



     Writing config-only to output data dir ./SiO2.save/ :
     XML data file
     NEW-OLD atomic charge density approx. for the potential
     New effective cutoffs (rho, wfc):  408.08  102.28

     Check: negative core charge=   -0.000002

     total cpu time spent up to now is      279.7 secs

     Self-consistent Calculation

     iteration #  1     ecut=   100.00 Ry     beta= 0.70
     Davidson diagonalization with overlap
     ethr =  1.00E-06,  avg # of iterations =  3.0

     Threshold (ethr) on eigenvalues was too large:
     Diagonalizing with lowered threshold

     Davidson diagonalization with overlap
     ethr =  6.57E-09,  avg # of iterations =  3.8

     total cpu time spent up to now is      297.9 secs

     total energy              =    -190.06866870 Ry
     estimated scf accuracy    <       0.00000328 Ry

     iteration #  2     ecut=   100.00 Ry     beta= 0.70
     Davidson diagonalization with overlap
     ethr =  1.03E-08,  avg # of iterations =  2.4

     total cpu time spent up to now is      305.3 secs

     total energy              =    -190.06866944 Ry
     estimated scf accuracy    <       0.00000109 Ry

     iteration #  3     ecut=   100.00 Ry     beta= 0.70
     Davidson diagonalization with overlap
     ethr =  3.40E-09,  avg # of iterations =  2.0

     total cpu time spent up to now is      311.9 secs

     total energy              =    -190.06866958 Ry
     estimated scf accuracy    <       0.00000003 Ry

     iteration #  4     ecut=   100.00 Ry     beta= 0.70
     Davidson diagonalization with overlap
     ethr =  8.96E-11,  avg # of iterations =  2.0

     total cpu time spent up to now is      319.4 secs

     total energy              =    -190.06866959 Ry
     estimated scf accuracy    <          1.1E-09 Ry

     iteration #  5     ecut=   100.00 Ry     beta= 0.70
     Davidson diagonalization with overlap
     ethr =  3.53E-12,  avg # of iterations =  2.7

     total cpu time spent up to now is      327.1 secs

     End of self-consistent calculation

          k = 0.0000 0.0000 0.0000 (  5773 PWs)   bands (ev):

   -12.6549  -9.5769  -9.4779  -9.4779  -1.0440   3.0844   3.0844   3.5954
     4.1478   4.1680   6.1383   6.1383   6.4241   8.1389   8.1389   8.9037
    13.1217  15.4278  17.0474  17.0474

          k = 0.0000 0.0000 0.1762 (  5793 PWs)   bands (ev):

   -12.5041  -9.5410  -9.4003  -9.4003  -0.9899   3.2192   3.2192   3.6802
     3.7624   3.9793   5.6043   5.6043   5.7840   8.0425   8.0425   8.8006
    13.7677  16.2066  17.6942  17.6942

          k = 0.0000 0.0000 0.3523 (  5777 PWs)   bands (ev):

   -12.0697  -9.4910  -9.1939  -9.1939  -0.8859   2.8549   3.1358   3.6022
     3.6022   4.2492   4.4453   4.4453   4.7899   7.7239   7.7239   8.4610
    14.9414  17.6600  18.6997  19.0533

          k = 0.0000 0.0000 0.5285 (  5772 PWs)   bands (ev):

   -11.4123  -9.5853  -8.9393  -8.9393  -0.7936   1.6965   2.5100   3.2920
     3.2920   4.1104   4.1981   4.1981   5.0103   7.1975   7.1975   7.8372
    15.7835  18.0060  19.0596  19.8814

          k = 0.0000 0.0000 0.7047 (  5792 PWs)   bands (ev):

   -10.6525  -9.9801  -8.7593  -8.7593  -0.4710   0.3757   2.6198   2.6198
     2.8123   3.4398   4.7613   4.7613   5.9589   6.6491   6.6491   6.9581
    16.4372  17.2635  19.9191  20.1552

          k = 0.0000 0.2466 0.0000 (  5788 PWs)   bands (ev):

   -12.3785 -10.5288  -9.3577  -9.0386  -0.6664   1.8032   3.4126   4.3547
     4.3857   5.1533   5.6409   6.2376   6.5583   6.9855   8.0193   8.4811
    14.0783  15.7467  17.1442  17.2050

          k = 0.0000 0.2466 0.1762 (  5773 PWs)   bands (ev):

   -12.2327 -10.4318  -9.2889  -9.0036  -0.5753   1.9123   3.0887   4.1099
     4.4523   4.6756   5.5425   5.7728   5.8711   7.2410   7.9147   8.4631
    14.5264  16.4422  17.7448  17.8018

          k = 0.0000 0.2466 0.3523 (  5790 PWs)   bands (ev):

   -11.8155 -10.1812  -9.1118  -8.9342  -0.3866   2.1465   2.2364   3.0256
     4.0121   4.5918   4.8601   5.2299   5.4119   7.3267   7.5869   8.2915
    15.3604  17.6328  18.7673  18.7953

          k = 0.0000 0.2466 0.5285 (  5767 PWs)   bands (ev):

   -11.1941  -9.9298  -8.9138  -8.8974  -0.3399   1.3607   1.8191   2.5767
     3.2329   3.4529   5.1815   5.2258   5.6694   7.0913   7.1532   7.8840
    15.9968  17.7596  18.4458  18.9137

          k = 0.0000 0.2466 0.7047 (  5764 PWs)   bands (ev):

   -10.5074  -9.9973  -8.8538  -8.8142  -0.2831   0.2678   2.0138   2.3107
     2.7504   2.9343   5.2940   5.5278   6.1985   6.7371   6.8435   7.3070
    16.5186  17.1453  18.3934  18.6060

          k = 0.0000-0.4931 0.0000 (  5794 PWs)   bands (ev):

   -11.6051 -11.6051  -9.1045  -9.1045   0.3414   0.3414   4.7750   4.7750
     4.9156   4.9156   5.5964   5.5964   6.4519   6.4519   7.8868   7.8868
    15.5331  15.5331  17.6457  17.6457

          k = 0.0000-0.4931 0.1762 (  5786 PWs)   bands (ev):

   -11.4761 -11.4761  -9.0573  -9.0573   0.4683   0.4683   3.6584   3.6584
     5.1513   5.1513   5.7850   5.7850   6.2183   6.2183   7.8326   7.8326
    15.9538  15.9538  18.3259  18.3259

          k = 0.0000-0.4931 0.3523 (  5772 PWs)   bands (ev):

   -11.1155 -11.1155  -8.9509  -8.9509   0.7981   0.7981   2.2106   2.2106
     4.3386   4.3386   5.9951   5.9951   6.2198   6.2198   7.6835   7.6835
    16.5921  16.5921  18.7082  18.7082

          k = 0.0000-0.4931 0.5285 (  5776 PWs)   bands (ev):

   -10.6157 -10.6157  -8.8793  -8.8793   0.7437   0.7437   1.4280   1.4280
     3.3526   3.3526   5.8512   5.8512   6.5337   6.5337   7.5298   7.5298
    16.8064  16.8064  18.0591  18.0591

          k = 0.0000-0.4931 0.7047 (  5770 PWs)   bands (ev):

   -10.1884 -10.1884  -8.9087  -8.9087   0.0952   0.0952   1.5788   1.5788
     2.8878   2.8878   5.5706   5.5706   6.7964   6.7964   7.4451   7.4451
    16.8024  16.8024  17.6182  17.6182

          k = 0.2466 0.2466 0.0000 (  5792 PWs)   bands (ev):

   -12.1239 -10.7106  -9.6041  -9.0518  -0.2142   1.8572   3.0828   4.5466
     4.8720   5.3738   5.5613   6.0935   6.5175   6.5747   7.6476   8.2209
    14.5335  15.7819  17.1785  17.8770

          k = 0.2466 0.2466 0.1762 (  5789 PWs)   bands (ev):

   -11.9836 -10.6108  -9.5223  -9.0116  -0.1273   1.7263   3.1940   4.0174
     4.5301   4.8460   5.6840   5.6930   6.0120   6.9176   7.6306   8.2619
    14.9271  16.3700  17.7482  18.4699

          k = 0.2466 0.2466 0.3523 (  5785 PWs)   bands (ev):

   -11.5845 -10.3499  -9.3039  -8.9267  -0.0014   1.2832   2.7868   3.3667
     3.7485   4.2425   4.6531   5.6445   6.1086   7.0086   7.5345   8.1795
    15.5556  17.1708  18.5866  19.5417

          k = 0.2466 0.2466 0.5285 (  5790 PWs)   bands (ev):

   -11.0018 -10.0625  -9.0330  -8.8832  -0.2910   0.8082   1.8621   2.7134
     2.9888   4.1069   4.3444   6.0979   6.1174   6.8961   7.2701   7.9039
    15.8629  16.9121  18.5079  19.6451

          k = 0.2466 0.2466 0.7047 (  5779 PWs)   bands (ev):

   -10.3919 -10.0111  -8.9057  -8.8404  -0.6737   0.1870   1.9564   2.0831
     2.3225   3.9685   4.8092   6.1627   6.5723   6.6728   7.0029   7.5143
    15.9918  16.5053  18.1483  19.5169

          k = 0.2466-0.4931 0.0000 (  5778 PWs)   bands (ev):

   -11.4435 -11.4435  -9.3926  -9.3926   0.8530   0.8530   4.1619   4.1619
     5.0476   5.0476   6.0070   6.0070   6.2759   6.2759   7.6125   7.6125
    15.3698  15.3698  17.9900  17.9900

          k = 0.2466-0.4931 0.1762 (  5790 PWs)   bands (ev):

   -11.3201 -11.3201  -9.3270  -9.3270   0.8693   0.8693   3.6785   3.6785
     4.8573   4.8573   5.6704   5.6704   6.3930   6.3930   7.6778   7.6778
    15.7802  15.7802  18.5855  18.5855

          k = 0.2466-0.4931 0.3523 (  5758 PWs)   bands (ev):

   -10.9789 -10.9789  -9.1629  -9.1629   0.7061   0.7061   2.8412   2.8412
     3.9825   3.9825   5.5649   5.5649   6.6007   6.6007   7.6781   7.6781
    16.2505  16.2505  19.4254  19.4254

          k = 0.2466-0.4931 0.5285 (  5790 PWs)   bands (ev):

   -10.5196 -10.5196  -8.9926  -8.9926   0.0420   0.0420   2.3818   2.3818
     3.1985   3.1985   5.6873   5.6873   6.7711   6.7711   7.5812   7.5812
    16.0813  16.0813  18.9938  18.9938

          k = 0.2466-0.4931 0.7047 (  5794 PWs)   bands (ev):

   -10.1501 -10.1501  -8.9133  -8.9133  -0.5514  -0.5514   1.8977   1.8977
     3.2047   3.2047   5.7356   5.7356   6.8273   6.8273   7.5354   7.5354
    15.7903  15.7903  18.6271  18.6271

          k =-0.4931-0.4931 0.0000 (  5804 PWs)   bands (ev):

   -11.2305 -11.2305  -9.7251  -9.7251   1.5603   1.5603   3.4223   3.4223
     5.2310   5.2310   6.0493   6.0493   6.7403   6.7403   6.9327   6.9327
    15.2750  15.2750  18.3359  18.3359

          k =-0.4931-0.4931 0.1762 (  5788 PWs)   bands (ev):

   -11.1161 -11.1161  -9.6393  -9.6393   1.3634   1.3634   3.4680   3.4680
     4.9253   4.9253   5.2615   5.2615   7.0071   7.0071   7.1374   7.1374
    15.6747  15.6747  18.8504  18.8504

          k =-0.4931-0.4931 0.3523 (  5776 PWs)   bands (ev):

   -10.8053 -10.8053  -9.4100  -9.4100   0.6913   0.6913   3.2463   3.2463
     4.4568   4.4568   4.5126   4.5126   7.2027   7.2027   7.3773   7.3773
    16.0545  16.0545  19.7991  19.7991

          k =-0.4931-0.4931 0.5285 (  5808 PWs)   bands (ev):

   -10.4060 -10.4060  -9.1240  -9.1240  -0.2648  -0.2648   2.3267   2.3267
     4.4283   4.4283   4.6026   4.6026   7.3515   7.3515   7.4391   7.4391
    15.7333  15.7333  19.3584  19.3584

          k =-0.4931-0.4931 0.7047 (  5784 PWs)   bands (ev):

   -10.1100 -10.1100  -8.9195  -8.9195  -0.9462  -0.9462   1.6678   1.6678
     4.4920   4.4920   4.9036   4.9036   7.2157   7.2157   7.6026   7.6026
    15.3264  15.3264  18.8892  18.8892

     the Fermi energy is    12.2928 ev

!    total energy              =    -190.06866959 Ry
     estimated scf accuracy    <          2.3E-11 Ry
     smearing contrib. (-TS)   =      -0.00000000 Ry
     internal energy E=F+TS    =    -190.06866959 Ry

     The total energy is F=E-TS. E is the sum of the following terms:
     one-electron contribution =     -19.70176718 Ry
     hartree contribution      =      33.47587668 Ry
     xc contribution           =     -42.78338869 Ry
     ewald contribution        =    -123.04739477 Ry
     one-center paw contrib.   =     -38.01199564 Ry

     convergence has been achieved in   5 iterations

     Forces acting on atoms (cartesian axes, Ry/au):

     atom    1 type  1   force =     0.00000000    0.00000000    0.00000000
     atom    2 type  1   force =     0.00000000    0.00000000    0.00000000
     atom    3 type  2   force =    -0.00000913   -0.00000913   -0.00000000
     atom    4 type  2   force =     0.00000913    0.00000913   -0.00000000
     atom    5 type  2   force =     0.00000913   -0.00000913   -0.00000000
     atom    6 type  2   force =    -0.00000913    0.00000913   -0.00000000

     Total force =     0.000026     Total SCF correction =     0.000004
     SCF correction compared to forces is large: reduce conv_thr to get better values


     Computing stress (Cartesian axis) and pressure

          total   stress  (Ry/bohr**3)                   (kbar)     P=     -135.41
  -0.00091962   0.00000000   0.00000000         -135.28        0.00        0.00
   0.00000000  -0.00091962   0.00000000            0.00     -135.28        0.00
   0.00000000   0.00000000  -0.00092228            0.00        0.00     -135.67

     Energy error            =      5.9E-06 Ry
     Gradient error          =      9.1E-06 Ry/Bohr
     Cell gradient error     =      2.0E-01 kbar

     bfgs converged in   5 scf cycles and   4 bfgs steps
     (criteria: energy <  1.0E-04 Ry, force <  1.0E-03 Ry/Bohr, cell <  5.0E-01 kbar)

     End of BFGS Geometry Optimization

     Final enthalpy           =    -190.3889953302 Ry

     File ./SiO2.bfgs deleted, as requested
Begin final coordinates
     new unit-cell volume =    347.81180 a.u.^3 (    51.54039 Ang^3 )
     density =      3.87153 g/cm^3

CELL_PARAMETERS (angstrom)
   4.359490319   0.000000000   0.000000000
   0.000000000   4.359490319   0.000000000
   0.000000000   0.000000000   2.711916277

ATOMIC_POSITIONS (angstrom)
Si               0.0000000000        0.0000000000        0.0000000000
Si               2.1797451595        2.1797451595        1.3559581385
O                1.3547313943        1.3547313943       -0.0000000000
O                3.0047589247        3.0047589247        0.0000000000
O                0.8250137652        3.5344765539        1.3559581385
O                3.5344765539        0.8250137652        1.3559581385
End final coordinates



     Writing config-only to output data dir ./SiO2.save/ :
     XML data file

     Final scf calculation at the relaxed structure.
     The G-vectors are recalculated for the final unit cell
     Results may differ from those at the preceding step.

     G-vector sticks info
     --------------------
     sticks:   dense  smooth     PW     G-vecs:    dense   smooth      PW
     Sum        2161    2161    621                47041    47041    7309

     Using Slab Decomposition



     bravais-lattice index     =            0
     lattice parameter (alat)  =       8.1253  a.u.
     unit-cell volume          =     347.8118 (a.u.)^3
     number of atoms/cell      =            6
     number of atomic types    =            2
     number of electrons       =        32.00
     number of Kohn-Sham states=           20
     kinetic-energy cutoff     =     100.0000  Ry
     charge density cutoff     =     400.0000  Ry
     scf convergence threshold =      1.0E-10
     mixing beta               =       0.7000
     number of iterations used =            8  plain     mixing
     press convergence thresh. =      5.0E-01
     Exchange-correlation= SLA  PW   PBX  PBC
                           (   1   4   3   4   0   0   0)

     celldm(1)=   8.125255  celldm(2)=   0.000000  celldm(3)=   0.000000
     celldm(4)=   0.000000  celldm(5)=   0.000000  celldm(6)=   0.000000

     crystal axes: (cart. coord. in units of alat)
               a(1) = (   1.013906   0.000000   0.000000 )  
               a(2) = (   0.000000   1.013906   0.000000 )  
               a(3) = (   0.000000   0.000000   0.630722 )  

     reciprocal axes: (cart. coord. in units 2 pi/alat)
               b(1) = (  0.986285  0.000000  0.000000 )  
               b(2) = (  0.000000  0.986285  0.000000 )  
               b(3) = (  0.000000  0.000000  1.585484 )  


     PseudoPot. # 1 for Si read from file:
     /home/yluo/ASE/05b_ev/ase/src/Si.pbe-n-rrkjus_psl.1.0.0.UPF
     MD5 check sum: 0b0bb1205258b0d07b9f9672cf965d36
     Pseudo is Ultrasoft + core correction, Zval =  4.0
     Generated using "atomic" code by A. Dal Corso  v.5.1
     Using radial grid of 1141 points,  6 beta functions with: 
                l(1) =   0
                l(2) =   0
                l(3) =   1
                l(4) =   1
                l(5) =   2
                l(6) =   2
     Q(r) pseudized with 0 coefficients 


     PseudoPot. # 2 for O  read from file:
     /home/yluo/ASE/05b_ev/ase/src/O.pbe-n-kjpaw_psl.0.1.UPF
     MD5 check sum: 0234752ac141de4415c5fc33072bef88
     Pseudo is Projector augmented-wave + core cor, Zval =  6.0
     Generated using "atomic" code by A. Dal Corso  v.5.0.99 svn rev. 10869
     Shape of augmentation charge: BESSEL
     Using radial grid of 1095 points,  4 beta functions with: 
                l(1) =   0
                l(2) =   0
                l(3) =   1
                l(4) =   1
     Q(r) pseudized with 0 coefficients 


     atomic species   valence    mass     pseudopotential
     Si                4.00    28.08500     Si( 1.00)
     O                 6.00    15.99900     O ( 1.00)

     16 Sym. Ops., with inversion, found ( 8 have fractional translation)



   Cartesian axes

     site n.     atom                  positions (alat units)
         1        Si     tau(   1) = (   0.0000000   0.0000000   0.0000000  )
         2        Si     tau(   2) = (   0.5069528   0.5069528   0.3153611  )
         3        O      tau(   3) = (   0.3150758   0.3150758  -0.0000000  )
         4        O      tau(   4) = (   0.6988299   0.6988299   0.0000000  )
         5        O      tau(   5) = (   0.1918771   0.8220286   0.3153611  )
         6        O      tau(   6) = (   0.8220286   0.1918771   0.3153611  )

     number of k points=    30  Marzari-Vanderbilt smearing, width (Ry)=  0.0050
                       cart. coord. in units 2pi/alat
        k(    1) = (   0.0000000   0.0000000   0.0000000), wk =   0.0138889
        k(    2) = (   0.0000000   0.0000000   0.1761649), wk =   0.0277778
        k(    3) = (   0.0000000   0.0000000   0.3523298), wk =   0.0277778
        k(    4) = (   0.0000000   0.0000000   0.5284947), wk =   0.0277778
        k(    5) = (   0.0000000   0.0000000   0.7046596), wk =   0.0277778
        k(    6) = (   0.0000000   0.2465713   0.0000000), wk =   0.0555556
        k(    7) = (   0.0000000   0.2465713   0.1761649), wk =   0.1111111
        k(    8) = (   0.0000000   0.2465713   0.3523298), wk =   0.1111111
        k(    9) = (   0.0000000   0.2465713   0.5284947), wk =   0.1111111
        k(   10) = (   0.0000000   0.2465713   0.7046596), wk =   0.1111111
        k(   11) = (   0.0000000  -0.4931425   0.0000000), wk =   0.0277778
        k(   12) = (   0.0000000  -0.4931425   0.1761649), wk =   0.0555556
        k(   13) = (   0.0000000  -0.4931425   0.3523298), wk =   0.0555556
        k(   14) = (   0.0000000  -0.4931425   0.5284947), wk =   0.0555556
        k(   15) = (   0.0000000  -0.4931425   0.7046596), wk =   0.0555556
        k(   16) = (   0.2465713   0.2465713   0.0000000), wk =   0.0555556
        k(   17) = (   0.2465713   0.2465713   0.1761649), wk =   0.1111111
        k(   18) = (   0.2465713   0.2465713   0.3523298), wk =   0.1111111
        k(   19) = (   0.2465713   0.2465713   0.5284947), wk =   0.1111111
        k(   20) = (   0.2465713   0.2465713   0.7046596), wk =   0.1111111
        k(   21) = (   0.2465713  -0.4931425   0.0000000), wk =   0.0555556
        k(   22) = (   0.2465713  -0.4931425   0.1761649), wk =   0.1111111
        k(   23) = (   0.2465713  -0.4931425   0.3523298), wk =   0.1111111
        k(   24) = (   0.2465713  -0.4931425   0.5284947), wk =   0.1111111
        k(   25) = (   0.2465713  -0.4931425   0.7046596), wk =   0.1111111
        k(   26) = (  -0.4931425  -0.4931425   0.0000000), wk =   0.0138889
        k(   27) = (  -0.4931425  -0.4931425   0.1761649), wk =   0.0277778
        k(   28) = (  -0.4931425  -0.4931425   0.3523298), wk =   0.0277778
        k(   29) = (  -0.4931425  -0.4931425   0.5284947), wk =   0.0277778
        k(   30) = (  -0.4931425  -0.4931425   0.7046596), wk =   0.0277778

     Dense  grid:    47041 G-vectors     FFT dimensions: (  54,  54,  36)

     Estimated max dynamical RAM per process >     241.26 MB

     Check: negative core charge=   -0.000002

     Initial potential from superposition of free atoms

     starting charge      31.9989, renormalised to      32.0000
     Starting wfcs are   24 randomized atomic wfcs
     Checking if some PAW data can be deallocated... 

     total cpu time spent up to now is      337.4 secs

     Self-consistent Calculation

     iteration #  1     ecut=   100.00 Ry     beta= 0.70
     Davidson diagonalization with overlap
     c_bands:  1 eigenvalues not converged
     c_bands:  1 eigenvalues not converged
     c_bands:  1 eigenvalues not converged
     c_bands:  1 eigenvalues not converged
     c_bands:  1 eigenvalues not converged
     c_bands:  1 eigenvalues not converged
     c_bands:  2 eigenvalues not converged
     ethr =  1.00E-06,  avg # of iterations = 15.9

     total cpu time spent up to now is      363.2 secs

     total energy              =    -189.61300696 Ry
     estimated scf accuracy    <       1.07258658 Ry

     iteration #  2     ecut=   100.00 Ry     beta= 0.70
     Davidson diagonalization with overlap
     ethr =  3.35E-03,  avg # of iterations =  2.8

     total cpu time spent up to now is      371.6 secs

     total energy              =    -189.98108506 Ry
     estimated scf accuracy    <       0.56184562 Ry

     iteration #  3     ecut=   100.00 Ry     beta= 0.70
     Davidson diagonalization with overlap
     ethr =  1.76E-03,  avg # of iterations =  1.9

     total cpu time spent up to now is      378.0 secs

     total energy              =    -190.05922168 Ry
     estimated scf accuracy    <       0.01115516 Ry

     iteration #  4     ecut=   100.00 Ry     beta= 0.70
     Davidson diagonalization with overlap
     ethr =  3.49E-05,  avg # of iterations =  4.3

     total cpu time spent up to now is      387.9 secs

     total energy              =    -190.06834050 Ry
     estimated scf accuracy    <       0.01021102 Ry

     iteration #  5     ecut=   100.00 Ry     beta= 0.70
     Davidson diagonalization with overlap
     ethr =  3.19E-05,  avg # of iterations =  1.7

     total cpu time spent up to now is      394.2 secs

     total energy              =    -190.06821511 Ry
     estimated scf accuracy    <       0.00175606 Ry

     iteration #  6     ecut=   100.00 Ry     beta= 0.70
     Davidson diagonalization with overlap
     ethr =  5.49E-06,  avg # of iterations =  4.1

     total cpu time spent up to now is      402.5 secs

     total energy              =    -190.06866995 Ry
     estimated scf accuracy    <       0.00000171 Ry

     iteration #  7     ecut=   100.00 Ry     beta= 0.70
     Davidson diagonalization with overlap
     ethr =  5.33E-09,  avg # of iterations =  5.7

     total cpu time spent up to now is      415.0 secs

     total energy              =    -190.06868167 Ry
     estimated scf accuracy    <       0.00000387 Ry

     iteration #  8     ecut=   100.00 Ry     beta= 0.70
     Davidson diagonalization with overlap
     ethr =  5.33E-09,  avg # of iterations =  2.9

     total cpu time spent up to now is      423.3 secs

     total energy              =    -190.06868278 Ry
     estimated scf accuracy    <       0.00000017 Ry

     iteration #  9     ecut=   100.00 Ry     beta= 0.70
     Davidson diagonalization with overlap
     ethr =  5.35E-10,  avg # of iterations =  2.0

     total cpu time spent up to now is      430.3 secs

     total energy              =    -190.06868283 Ry
     estimated scf accuracy    <          5.6E-09 Ry

     iteration # 10     ecut=   100.00 Ry     beta= 0.70
     Davidson diagonalization with overlap
     ethr =  1.76E-11,  avg # of iterations =  3.1

     total cpu time spent up to now is      437.2 secs

     total energy              =    -190.06868282 Ry
     estimated scf accuracy    <          8.0E-09 Ry

     iteration # 11     ecut=   100.00 Ry     beta= 0.70
     Davidson diagonalization with overlap
     ethr =  1.76E-11,  avg # of iterations =  2.0

     total cpu time spent up to now is      444.6 secs

     End of self-consistent calculation

          k = 0.0000 0.0000 0.0000 (  5897 PWs)   bands (ev):

   -12.6549  -9.5769  -9.4779  -9.4779  -1.0441   3.0843   3.0843   3.5954
     4.1478   4.1680   6.1383   6.1383   6.4241   8.1389   8.1389   8.9037
    13.1217  15.4278  17.0474  17.0474

          k = 0.0000 0.0000 0.1762 (  5889 PWs)   bands (ev):

   -12.5041  -9.5410  -9.4003  -9.4003  -0.9899   3.2191   3.2191   3.6802
     3.7623   3.9792   5.6043   5.6043   5.7840   8.0425   8.0425   8.8006
    13.7677  16.2066  17.6942  17.6942

          k = 0.0000 0.0000 0.3523 (  5888 PWs)   bands (ev):

   -12.0697  -9.4910  -9.1939  -9.1939  -0.8860   2.8549   3.1358   3.6022
     3.6022   4.2492   4.4453   4.4453   4.7899   7.7239   7.7239   8.4609
    14.9414  17.6600  19.0533  19.0533

          k = 0.0000 0.0000 0.5285 (  5876 PWs)   bands (ev):

   -11.4124  -9.5853  -8.9393  -8.9393  -0.7936   1.6965   2.5100   3.2920
     3.2920   4.1104   4.1981   4.1981   5.0103   7.1975   7.1975   7.8371
    15.7835  18.0060  19.0596  19.8814

          k = 0.0000 0.0000 0.7047 (  5848 PWs)   bands (ev):

   -10.6525  -9.9801  -8.7593  -8.7593  -0.4710   0.3757   2.6198   2.6198
     2.8123   3.4398   4.7613   4.7613   5.9589   6.6491   6.6491   6.9580
    16.4372  17.2635  19.9191  19.9197

          k = 0.0000 0.2466 0.0000 (  5862 PWs)   bands (ev):

   -12.3785 -10.5288  -9.3577  -9.0386  -0.6664   1.8031   3.4126   4.3547
     4.3857   5.1533   5.6409   6.2376   6.5583   6.9854   8.0193   8.4810
    14.0783  15.7467  17.1442  17.2050

          k = 0.0000 0.2466 0.1762 (  5875 PWs)   bands (ev):

   -12.2327 -10.4318  -9.2889  -9.0036  -0.5753   1.9123   3.0887   4.1099
     4.4523   4.6756   5.5425   5.7728   5.8711   7.2410   7.9147   8.4630
    14.5264  16.4421  17.7447  17.8018

          k = 0.0000 0.2466 0.3523 (  5875 PWs)   bands (ev):

   -11.8155 -10.1812  -9.1118  -8.9342  -0.3866   2.1465   2.2364   3.0256
     4.0120   4.5918   4.8600   5.2299   5.4119   7.3266   7.5868   8.2914
    15.3604  17.6328  18.7679  18.7953

          k = 0.0000 0.2466 0.5285 (  5874 PWs)   bands (ev):

   -11.1941  -9.9298  -8.9138  -8.8974  -0.3399   1.3607   1.8191   2.5767
     3.2329   3.4529   5.1815   5.2258   5.6694   7.0912   7.1532   7.8839
    15.9968  17.7596  18.4458  18.9137

          k = 0.0000 0.2466 0.7047 (  5870 PWs)   bands (ev):

   -10.5074  -9.9973  -8.8538  -8.8143  -0.2831   0.2678   2.0137   2.3107
     2.7504   2.9343   5.2940   5.5277   6.1985   6.7371   6.8434   7.3069
    16.5186  17.1452  18.3934  18.6060

          k = 0.0000-0.4931 0.0000 (  5874 PWs)   bands (ev):

   -11.6051 -11.6051  -9.1045  -9.1045   0.3413   0.3413   4.7749   4.7749
     4.9156   4.9156   5.5963   5.5963   6.4519   6.4519   7.8868   7.8868
    15.5331  15.5331  17.6457  17.6457

          k = 0.0000-0.4931 0.1762 (  5858 PWs)   bands (ev):

   -11.4761 -11.4761  -9.0573  -9.0573   0.4683   0.4683   3.6584   3.6584
     5.1513   5.1513   5.7850   5.7850   6.2182   6.2182   7.8326   7.8326
    15.9538  15.9538  18.3260  18.3260

          k = 0.0000-0.4931 0.3523 (  5854 PWs)   bands (ev):

   -11.1155 -11.1155  -8.9509  -8.9509   0.7981   0.7981   2.2106   2.2106
     4.3386   4.3386   5.9951   5.9951   6.2198   6.2198   7.6835   7.6835
    16.5921  16.5921  18.7082  18.7083

          k = 0.0000-0.4931 0.5285 (  5880 PWs)   bands (ev):

   -10.6157 -10.6157  -8.8793  -8.8793   0.7437   0.7437   1.4279   1.4279
     3.3526   3.3526   5.8512   5.8512   6.5337   6.5337   7.5298   7.5298
    16.8064  16.8064  18.0591  18.0591

          k = 0.0000-0.4931 0.7047 (  5870 PWs)   bands (ev):

   -10.1884 -10.1884  -8.9087  -8.9087   0.0952   0.0952   1.5788   1.5788
     2.8877   2.8877   5.5706   5.5706   6.7964   6.7964   7.4451   7.4451
    16.8024  16.8024  17.6182  17.6182

          k = 0.2466 0.2466 0.0000 (  5873 PWs)   bands (ev):

   -12.1239 -10.7106  -9.6041  -9.0518  -0.2142   1.8572   3.0828   4.5466
     4.8720   5.3738   5.5613   6.0935   6.5175   6.5746   7.6475   8.2208
    14.5335  15.7819  17.1785  17.8770

          k = 0.2466 0.2466 0.1762 (  5865 PWs)   bands (ev):

   -11.9836 -10.6108  -9.5223  -9.0116  -0.1274   1.7263   3.1940   4.0174
     4.5301   4.8460   5.6840   5.6930   6.0119   6.9175   7.6305   8.2618
    14.9271  16.3700  17.7482  18.4699

          k = 0.2466 0.2466 0.3523 (  5866 PWs)   bands (ev):

   -11.5845 -10.3499  -9.3039  -8.9267  -0.0015   1.2832   2.7867   3.3667
     3.7485   4.2425   4.6531   5.6444   6.1086   7.0086   7.5345   8.1795
    15.5556  17.1708  18.5866  19.5417

          k = 0.2466 0.2466 0.5285 (  5884 PWs)   bands (ev):

   -11.0018 -10.0625  -9.0330  -8.8832  -0.2910   0.8082   1.8621   2.7134
     2.9888   4.1069   4.3444   6.0979   6.1173   6.8960   7.2700   7.9039
    15.8629  16.9121  18.5079  19.6451

          k = 0.2466 0.2466 0.7047 (  5897 PWs)   bands (ev):

   -10.3919 -10.0111  -8.9057  -8.8404  -0.6737   0.1870   1.9564   2.0831
     2.3225   3.9685   4.8092   6.1627   6.5722   6.6728   7.0029   7.5143
    15.9918  16.5053  18.1483  19.5170

          k = 0.2466-0.4931 0.0000 (  5864 PWs)   bands (ev):

   -11.4435 -11.4435  -9.3926  -9.3926   0.8530   0.8530   4.1618   4.1618
     5.0476   5.0476   6.0070   6.0070   6.2759   6.2759   7.6125   7.6125
    15.3698  15.3698  17.9899  17.9899

          k = 0.2466-0.4931 0.1762 (  5876 PWs)   bands (ev):

   -11.3201 -11.3201  -9.3270  -9.3270   0.8693   0.8693   3.6785   3.6785
     4.8573   4.8573   5.6704   5.6704   6.3930   6.3930   7.6777   7.6777
    15.7802  15.7802  18.5856  18.5856

          k = 0.2466-0.4931 0.3523 (  5878 PWs)   bands (ev):

   -10.9789 -10.9789  -9.1629  -9.1629   0.7061   0.7061   2.8412   2.8412
     3.9825   3.9825   5.5648   5.5648   6.6006   6.6006   7.6781   7.6781
    16.2505  16.2505  19.4256  19.4256

          k = 0.2466-0.4931 0.5285 (  5880 PWs)   bands (ev):

   -10.5196 -10.5196  -8.9926  -8.9926   0.0420   0.0420   2.3818   2.3818
     3.1985   3.1985   5.6873   5.6873   6.7711   6.7711   7.5811   7.5811
    16.0813  16.0813  18.9938  18.9938

          k = 0.2466-0.4931 0.7047 (  5900 PWs)   bands (ev):

   -10.1501 -10.1501  -8.9133  -8.9133  -0.5514  -0.5514   1.8977   1.8977
     3.2047   3.2047   5.7355   5.7355   6.8273   6.8273   7.5353   7.5353
    15.7903  15.7903  18.6271  18.6271

          k =-0.4931-0.4931 0.0000 (  5892 PWs)   bands (ev):

   -11.2305 -11.2305  -9.7251  -9.7251   1.5603   1.5603   3.4223   3.4223
     5.2310   5.2310   6.0493   6.0493   6.7403   6.7403   6.9327   6.9327
    15.2750  15.2750  18.3359  18.3359

          k =-0.4931-0.4931 0.1762 (  5872 PWs)   bands (ev):

   -11.1161 -11.1161  -9.6393  -9.6393   1.3634   1.3634   3.4680   3.4680
     4.9253   4.9253   5.2615   5.2615   7.0071   7.0071   7.1374   7.1374
    15.6747  15.6747  18.8504  18.8504

          k =-0.4931-0.4931 0.3523 (  5884 PWs)   bands (ev):

   -10.8053 -10.8053  -9.4100  -9.4100   0.6913   0.6913   3.2462   3.2462
     4.4568   4.4568   4.5126   4.5126   7.2026   7.2026   7.3773   7.3773
    16.0545  16.0545  19.7996  19.7998

          k =-0.4931-0.4931 0.5285 (  5896 PWs)   bands (ev):

   -10.4060 -10.4060  -9.1240  -9.1240  -0.2648  -0.2648   2.3267   2.3267
     4.4283   4.4283   4.6026   4.6026   7.3515   7.3515   7.4390   7.4390
    15.7333  15.7333  19.3584  19.3584

          k =-0.4931-0.4931 0.7047 (  5900 PWs)   bands (ev):

   -10.1100 -10.1100  -8.9195  -8.9195  -0.9462  -0.9462   1.6678   1.6678
     4.4920   4.4920   4.9036   4.9036   7.2157   7.2157   7.6026   7.6026
    15.3264  15.3264  18.8892  18.8892

     the Fermi energy is    12.1162 ev

!    total energy              =    -190.06868282 Ry
     estimated scf accuracy    <          1.7E-11 Ry
     smearing contrib. (-TS)   =       0.00000000 Ry
     internal energy E=F+TS    =    -190.06868282 Ry

     The total energy is F=E-TS. E is the sum of the following terms:
     one-electron contribution =     -19.70177143 Ry
     hartree contribution      =      33.47588580 Ry
     xc contribution           =     -42.78340234 Ry
     ewald contribution        =    -123.04739477 Ry
     one-center paw contrib.   =     -38.01200009 Ry

     convergence has been achieved in  11 iterations

     Forces acting on atoms (cartesian axes, Ry/au):

     atom    1 type  1   force =     0.00000000    0.00000000    0.00000000
     atom    2 type  1   force =     0.00000000    0.00000000    0.00000000
     atom    3 type  2   force =    -0.00000608   -0.00000608    0.00000000
     atom    4 type  2   force =     0.00000608    0.00000608   -0.00000000
     atom    5 type  2   force =     0.00000608   -0.00000608    0.00000000
     atom    6 type  2   force =    -0.00000608    0.00000608   -0.00000000

     Total force =     0.000017     Total SCF correction =     0.000003
     SCF correction compared to forces is large: reduce conv_thr to get better values


     Computing stress (Cartesian axis) and pressure

          total   stress  (Ry/bohr**3)                   (kbar)     P=     -135.47
  -0.00092015   0.00000000   0.00000000         -135.36        0.00        0.00
   0.00000000  -0.00092015   0.00000000            0.00     -135.36        0.00
   0.00000000   0.00000000  -0.00092233            0.00        0.00     -135.68


     Writing all to output data dir ./SiO2.save/ :
     XML data file, charge density, pseudopotentials, collected wavefunctions

     init_run     :      6.64s CPU      6.86s WALL (       2 calls)
     electrons    :    392.70s CPU    398.73s WALL (       6 calls)
     update_pot   :      0.48s CPU      0.48s WALL (       4 calls)
     forces       :      9.20s CPU      9.57s WALL (       6 calls)
     stress       :     33.05s CPU     33.88s WALL (       6 calls)

     Called by init_run:
     wfcinit      :      5.18s CPU      5.22s WALL (       2 calls)
     potinit      :      0.30s CPU      0.33s WALL (       2 calls)
     hinit0       :      0.86s CPU      0.87s WALL (       2 calls)

     Called by electrons:
     c_bands      :    343.67s CPU    344.33s WALL (      47 calls)
     sum_band     :     38.25s CPU     41.56s WALL (      47 calls)
     v_of_rho     :      1.24s CPU      1.26s WALL (      52 calls)
     newd         :      6.11s CPU      8.47s WALL (      52 calls)
     PAW_pot      :      4.91s CPU      4.93s WALL (      56 calls)
     mix_rho      :      0.18s CPU      0.18s WALL (      47 calls)

     Called by c_bands:
     init_us_2    :      5.98s CPU      6.02s WALL (    3360 calls)
     cegterg      :    332.43s CPU    333.05s WALL (    1410 calls)

     Called by *egterg:
     cdiaghg      :      2.30s CPU      2.30s WALL (    5764 calls)
     h_psi        :    182.42s CPU    182.87s WALL (    5974 calls)
     s_psi        :     44.74s CPU     44.81s WALL (    5974 calls)
     g_psi        :      0.92s CPU      0.92s WALL (    4504 calls)

     Called by h_psi:
     h_psi:calbec :     49.33s CPU     49.40s WALL (    5974 calls)
     vloc_psi     :     87.28s CPU     87.59s WALL (    5974 calls)
                                        0.00s GPU  (    5974 calls)
     add_vuspsi   :     44.99s CPU     45.06s WALL (    5974 calls)

     General routines
     calbec       :     94.65s CPU     94.84s WALL (   10564 calls)
     fft          :      0.64s CPU      0.65s WALL (     727 calls)
     ffts         :      0.04s CPU      0.04s WALL (      47 calls)
     fftw         :     85.29s CPU     85.63s WALL (  203652 calls)

     Parallel routines

     PWSCF        :   7m24.29s CPU   7m32.01s WALL


   This run was terminated on:  16:53:27  17Jul2026            

=------------------------------------------------------------------------------=
   JOB DONE.
=------------------------------------------------------------------------------=
