
     Program PWSCF v.7.5 starts on 17Jul2026 at 16:14:48 

     This program is part of the open-source Quantum ESPRESSO suite
     for quantum simulation of materials; please cite
         "P. Giannozzi et al., J. Phys.:Condens. Matter 21 395502 (2009);
         "P. Giannozzi et al., J. Phys.:Condens. Matter 29 465901 (2017);
         "P. Giannozzi et al., J. Chem. Phys. 152 154105 (2020);
          URL http://www.quantum-espresso.org", 
     in publications or presentations arising from this work. More details at
     http://www.quantum-espresso.org/quote

     Parallel version (MPI), running on     1 processors

     MPI processes distributed on     1 nodes
     11565 MiB available memory on the printing compute node when the environment starts

     Reading input from espresso.pwi
Warning: card &FCP ignored
Warning: card &RISM ignored

     Current dimensions of program PWSCF are:
     Max number of different atomic species (ntypx) = 10
     Max number of k-points (npk) =  40000
     Max angular momentum in pseudopotentials (lmaxx) =  4
     file O.pbe-n-kjpaw_psl.0.1.UPF: wavefunction(s)  2P renormalized
     Message from routine setup:
     using ibrav=0 with symmetry is DISCOURAGED, use correct ibrav instead

     Subspace diagonalization in iterative solution of the eigenvalue problem:
     a serial algorithm will be used


     G-vector sticks info
     --------------------
     sticks:   dense  smooth     PW     G-vecs:    dense   smooth      PW
     Sum        1885    1885    553                38971    38971    6201

     Using Slab Decomposition



     bravais-lattice index     =            0
     lattice parameter (alat)  =       7.6717  a.u.
     unit-cell volume          =     288.0979 (a.u.)^3
     number of atoms/cell      =            6
     number of atomic types    =            2
     number of electrons       =        32.00
     number of Kohn-Sham states=           20
     kinetic-energy cutoff     =     100.0000  Ry
     charge density cutoff     =     400.0000  Ry
     scf convergence threshold =      1.0E-08
     mixing beta               =       0.7000
     number of iterations used =            8  plain     mixing
     energy convergence thresh.=      1.0E-04
     force convergence thresh. =      1.0E-03
     press convergence thresh. =      5.0E-01
     Exchange-correlation= SLA  PW   PBX  PBC
                           (   1   4   3   4   0   0   0)
     nstep                     =           50


     celldm(1)=   7.671721  celldm(2)=   0.000000  celldm(3)=   0.000000
     celldm(4)=   0.000000  celldm(5)=   0.000000  celldm(6)=   0.000000

     crystal axes: (cart. coord. in units of alat)
               a(1) = (   1.000000   0.000000   0.000000 )  
               a(2) = (   0.000000   1.000000   0.000000 )  
               a(3) = (   0.000000   0.000000   0.638060 )  

     reciprocal axes: (cart. coord. in units 2 pi/alat)
               b(1) = (  1.000000  0.000000  0.000000 )  
               b(2) = (  0.000000  1.000000  0.000000 )  
               b(3) = (  0.000000  0.000000  1.567250 )  


     PseudoPot. # 1 for Si read from file:
     /home/yluo/ASE/05b_ev/ase/src/Si.pbe-n-rrkjus_psl.1.0.0.UPF
     MD5 check sum: 0b0bb1205258b0d07b9f9672cf965d36
     Pseudo is Ultrasoft + core correction, Zval =  4.0
     Generated using "atomic" code by A. Dal Corso  v.5.1
     Using radial grid of 1141 points,  6 beta functions with: 
                l(1) =   0
                l(2) =   0
                l(3) =   1
                l(4) =   1
                l(5) =   2
                l(6) =   2
     Q(r) pseudized with 0 coefficients 


     PseudoPot. # 2 for O  read from file:
     /home/yluo/ASE/05b_ev/ase/src/O.pbe-n-kjpaw_psl.0.1.UPF
     MD5 check sum: 0234752ac141de4415c5fc33072bef88
     Pseudo is Projector augmented-wave + core cor, Zval =  6.0
     Generated using "atomic" code by A. Dal Corso  v.5.0.99 svn rev. 10869
     Shape of augmentation charge: BESSEL
     Using radial grid of 1095 points,  4 beta functions with: 
                l(1) =   0
                l(2) =   0
                l(3) =   1
                l(4) =   1
     Q(r) pseudized with 0 coefficients 


     atomic species   valence    mass     pseudopotential
     Si                4.00    28.08500     Si( 1.00)
     O                 6.00    15.99900     O ( 1.00)

     16 Sym. Ops., with inversion, found ( 8 have fractional translation)



   Cartesian axes

     site n.     atom                  positions (alat units)
         1        Si     tau(   1) = (   0.0000000   0.0000000   0.0000000  )
         2        Si     tau(   2) = (   0.5000000   0.5000000   0.3190301  )
         3        O      tau(   3) = (   0.3061300   0.3061300   0.0000000  )
         4        O      tau(   4) = (   0.6938700   0.6938700   0.0000000  )
         5        O      tau(   5) = (   0.1938700   0.8061300   0.3190301  )
         6        O      tau(   6) = (   0.8061300   0.1938700   0.3190301  )

     number of k points=    30  Marzari-Vanderbilt smearing, width (Ry)=  0.0050
                       cart. coord. in units 2pi/alat
        k(    1) = (   0.0000000   0.0000000   0.0000000), wk =   0.0138889
        k(    2) = (   0.0000000   0.0000000   0.1741389), wk =   0.0277778
        k(    3) = (   0.0000000   0.0000000   0.3482779), wk =   0.0277778
        k(    4) = (   0.0000000   0.0000000   0.5224168), wk =   0.0277778
        k(    5) = (   0.0000000   0.0000000   0.6965557), wk =   0.0277778
        k(    6) = (   0.0000000   0.2500000   0.0000000), wk =   0.0555556
        k(    7) = (   0.0000000   0.2500000   0.1741389), wk =   0.1111111
        k(    8) = (   0.0000000   0.2500000   0.3482779), wk =   0.1111111
        k(    9) = (   0.0000000   0.2500000   0.5224168), wk =   0.1111111
        k(   10) = (   0.0000000   0.2500000   0.6965557), wk =   0.1111111
        k(   11) = (   0.0000000  -0.5000000   0.0000000), wk =   0.0277778
        k(   12) = (   0.0000000  -0.5000000   0.1741389), wk =   0.0555556
        k(   13) = (   0.0000000  -0.5000000   0.3482779), wk =   0.0555556
        k(   14) = (   0.0000000  -0.5000000   0.5224168), wk =   0.0555556
        k(   15) = (   0.0000000  -0.5000000   0.6965557), wk =   0.0555556
        k(   16) = (   0.2500000   0.2500000   0.0000000), wk =   0.0555556
        k(   17) = (   0.2500000   0.2500000   0.1741389), wk =   0.1111111
        k(   18) = (   0.2500000   0.2500000   0.3482779), wk =   0.1111111
        k(   19) = (   0.2500000   0.2500000   0.5224168), wk =   0.1111111
        k(   20) = (   0.2500000   0.2500000   0.6965557), wk =   0.1111111
        k(   21) = (   0.2500000  -0.5000000   0.0000000), wk =   0.0555556
        k(   22) = (   0.2500000  -0.5000000   0.1741389), wk =   0.1111111
        k(   23) = (   0.2500000  -0.5000000   0.3482779), wk =   0.1111111
        k(   24) = (   0.2500000  -0.5000000   0.5224168), wk =   0.1111111
        k(   25) = (   0.2500000  -0.5000000   0.6965557), wk =   0.1111111
        k(   26) = (  -0.5000000  -0.5000000   0.0000000), wk =   0.0138889
        k(   27) = (  -0.5000000  -0.5000000   0.1741389), wk =   0.0277778
        k(   28) = (  -0.5000000  -0.5000000   0.3482779), wk =   0.0277778
        k(   29) = (  -0.5000000  -0.5000000   0.5224168), wk =   0.0277778
        k(   30) = (  -0.5000000  -0.5000000   0.6965557), wk =   0.0277778

     Dense  grid:    38971 G-vectors     FFT dimensions: (  50,  50,  32)

     Estimated max dynamical RAM per process >     199.91 MB

     Check: negative core charge=   -0.000002

     Initial potential from superposition of free atoms

     starting charge      31.9989, renormalised to      32.0000
     Starting wfcs are   24 randomized atomic wfcs
     Checking if some PAW data can be deallocated... 

     total cpu time spent up to now is        3.1 secs

     Self-consistent Calculation

     iteration #  1     ecut=   100.00 Ry     beta= 0.70
     Davidson diagonalization with overlap
     ethr =  1.00E-02,  avg # of iterations =  3.2

     total cpu time spent up to now is        9.6 secs

     total energy              =    -189.54844945 Ry
     estimated scf accuracy    <       1.13282150 Ry

     iteration #  2     ecut=   100.00 Ry     beta= 0.70
     Davidson diagonalization with overlap
     ethr =  3.54E-03,  avg # of iterations =  2.4

     total cpu time spent up to now is       15.6 secs

     total energy              =    -189.97310051 Ry
     estimated scf accuracy    <       0.40456082 Ry

     iteration #  3     ecut=   100.00 Ry     beta= 0.70
     Davidson diagonalization with overlap
     ethr =  1.26E-03,  avg # of iterations =  1.6

     total cpu time spent up to now is       20.0 secs

     total energy              =    -190.01643045 Ry
     estimated scf accuracy    <       0.01326141 Ry

     iteration #  4     ecut=   100.00 Ry     beta= 0.70
     Davidson diagonalization with overlap
     ethr =  4.14E-05,  avg # of iterations =  7.5

     total cpu time spent up to now is       28.1 secs

     total energy              =    -190.02470563 Ry
     estimated scf accuracy    <       0.00993366 Ry

     iteration #  5     ecut=   100.00 Ry     beta= 0.70
     Davidson diagonalization with overlap
     ethr =  3.10E-05,  avg # of iterations =  1.2

     total cpu time spent up to now is       32.5 secs

     total energy              =    -190.02468703 Ry
     estimated scf accuracy    <       0.00177038 Ry

     iteration #  6     ecut=   100.00 Ry     beta= 0.70
     Davidson diagonalization with overlap
     ethr =  5.53E-06,  avg # of iterations =  3.1

     total cpu time spent up to now is       38.4 secs

     total energy              =    -190.02496256 Ry
     estimated scf accuracy    <       0.00010332 Ry

     iteration #  7     ecut=   100.00 Ry     beta= 0.70
     Davidson diagonalization with overlap
     ethr =  3.23E-07,  avg # of iterations =  3.2

     total cpu time spent up to now is       44.7 secs

     total energy              =    -190.02499909 Ry
     estimated scf accuracy    <       0.00000096 Ry

     iteration #  8     ecut=   100.00 Ry     beta= 0.70
     Davidson diagonalization with overlap
     ethr =  3.01E-09,  avg # of iterations =  3.4

     total cpu time spent up to now is       51.1 secs

     total energy              =    -190.02499954 Ry
     estimated scf accuracy    <       0.00000005 Ry

     iteration #  9     ecut=   100.00 Ry     beta= 0.70
     Davidson diagonalization with overlap
     ethr =  1.65E-10,  avg # of iterations =  2.5

     total cpu time spent up to now is       56.5 secs

     total energy              =    -190.02499955 Ry
     estimated scf accuracy    <       0.00000002 Ry

     iteration # 10     ecut=   100.00 Ry     beta= 0.70
     Davidson diagonalization with overlap
     ethr =  4.74E-11,  avg # of iterations =  2.0

     total cpu time spent up to now is       62.0 secs

     End of self-consistent calculation

          k = 0.0000 0.0000 0.0000 (  4887 PWs)   bands (ev):

   -11.4853  -7.3871  -7.3871  -7.1358   0.6420   5.0232   5.1174   5.1174
     6.2790   6.4841   8.6420   8.6420   9.4509  11.1213  11.1213  12.0355
    19.0686  19.3056  21.3464  21.3464

          k = 0.0000 0.0000 0.1741 (  4875 PWs)   bands (ev):

   -11.3045  -7.2909  -7.2909  -7.1118   0.7091   5.2206   5.2643   5.2643
     5.7688   6.2441   8.0518   8.0518   8.8826  10.9789  10.9789  11.8649
    19.8783  20.0662  22.1082  22.1082

          k = 0.0000 0.0000 0.3483 (  4884 PWs)   bands (ev):

   -10.7786  -7.1200  -7.0327  -7.0327   0.8558   4.8872   5.4048   5.6789
     5.6789   5.7998   6.7601   6.7601   7.7718  10.5380  10.5380  11.3250
    20.8433  22.2843  22.7492  23.8271

          k = 0.0000 0.0000 0.5224 (  4824 PWs)   bands (ev):

    -9.9641  -7.3711  -6.7087  -6.7087   1.0487   4.0174   4.5664   5.4196
     5.4196   6.3710   6.3710   6.7189   6.7512   9.8509   9.8509  10.3989
    21.2697  23.7016  23.7200  25.3895

          k = 0.0000 0.0000 0.6966 (  4848 PWs)   bands (ev):

    -8.9781  -8.0268  -6.4752  -6.4752   1.5538   2.5938   4.6548   4.6548
     4.9838   5.8044   6.9974   6.9974   7.8948   9.1653   9.1653   9.1878
    21.8880  22.9444  25.0099  25.8903

          k = 0.0000 0.2500 0.0000 (  4874 PWs)   bands (ev):

   -11.1271  -8.6626  -7.2027  -6.6046   1.0236   3.7234   5.3866   6.2518
     6.5394   7.5022   8.1343   8.7991   9.4408   9.8598  10.9940  11.5378
    19.6956  20.0853  21.5006  21.5856

          k = 0.0000 0.2500 0.1741 (  4856 PWs)   bands (ev):

   -10.9515  -8.5407  -7.1189  -6.5822   1.1469   3.8343   5.1068   5.9249
     6.8225   6.8486   7.9940   8.2817   8.6781  10.1086  10.8398  11.4811
    20.5299  20.6330  22.1629  22.3031

          k = 0.0000 0.2500 0.3483 (  4856 PWs)   bands (ev):

   -10.4432  -8.2184  -6.9034  -6.5675   1.4389   4.0291   4.1254   5.4683
     5.9278   7.0819   7.2588   7.3998   7.8768  10.1465  10.3807  11.1829
    21.2549  22.6500  23.4244  23.6550

          k = 0.0000 0.2500 0.5224 (  4874 PWs)   bands (ev):

    -9.6664  -7.8790  -6.6669  -6.6502   1.6295   3.4030   3.6397   4.8846
     5.2826   5.7323   7.4959   7.5388   7.7831   9.7223   9.8940  10.5723
    21.5833  23.3131  23.3985  24.4108

          k = 0.0000 0.2500 0.6966 (  4848 PWs)   bands (ev):

    -8.7604  -8.0119  -6.6602  -6.5703   1.7764   2.3630   3.9460   4.4329
     4.7845   5.0519   7.5154   7.8735   8.4714   9.3317   9.3562   9.8093
    21.9054  22.5460  23.6983  24.0801

          k = 0.0000-0.5000 0.0000 (  4880 PWs)   bands (ev):

   -10.1124 -10.1124  -6.7881  -6.7881   2.0958   2.0958   7.2424   7.2424
     7.2442   7.2442   7.7656   7.7656   9.1629   9.1629  10.8750  10.8750
    20.8902  20.8902  21.9220  21.9220

          k = 0.0000-0.5000 0.1741 (  4870 PWs)   bands (ev):

    -9.9545  -9.9545  -6.7385  -6.7385   2.2444   2.2444   5.9194   5.9194
     7.4130   7.4130   8.1783   8.1783   8.8996   8.8996  10.7749  10.7749
    21.5736  21.5736  22.6026  22.6026

          k = 0.0000-0.5000 0.3483 (  4858 PWs)   bands (ev):

    -9.5067  -9.5067  -6.6376  -6.6376   2.6505   2.6505   4.3053   4.3053
     6.5927   6.5927   8.3601   8.3601   8.8716   8.8716  10.5136  10.5136
    22.5028  22.5028  23.5482  23.5483

          k = 0.0000-0.5000 0.5224 (  4878 PWs)   bands (ev):

    -8.8631  -8.8631  -6.6162  -6.6162   2.9491   2.9491   3.1484   3.1484
     5.5215   5.5215   8.1358   8.1358   9.1861   9.1861  10.2503  10.2503
    22.3109  22.3109  23.0542  23.0542

          k = 0.0000-0.5000 0.6966 (  4862 PWs)   bands (ev):

    -8.2692  -8.2692  -6.7561  -6.7561   2.2215   2.2215   3.3701   3.3701
     5.0330   5.0330   7.7393   7.7393   9.4924   9.4924  10.0917  10.0917
    21.8234  21.8234  22.9497  22.9497

          k = 0.2500 0.2500 0.0000 (  4881 PWs)   bands (ev):

   -10.7901  -8.8472  -7.6274  -6.6886   1.5780   3.9567   5.1279   6.7632
     6.7877   7.8077   8.1261   8.5666   9.3086   9.3975  10.4432  11.1708
    19.8349  20.7163  21.4806  22.3710

          k = 0.2500 0.2500 0.1741 (  4862 PWs)   bands (ev):

   -10.6201  -8.7246  -7.5232  -6.6520   1.6930   3.7429   5.2324   6.2265
     6.8007   7.0740   8.0487   8.2418   8.5851   9.8233  10.4109  11.2168
    20.5168  21.3795  22.0170  23.0713

          k = 0.2500 0.2500 0.3483 (  4856 PWs)   bands (ev):

   -10.1312  -8.4002  -7.2421  -6.5930   1.9154   3.0826   5.0177   5.3130
     6.2221   6.4553   7.1166   7.7663   8.5950   9.9000  10.2660  11.0867
    21.2861  22.6322  23.2465  24.0699

          k = 0.2500 0.2500 0.5224 (  4860 PWs)   bands (ev):

    -9.3962  -8.0359  -6.8857  -6.6297   1.6154   2.6609   4.0040   4.5334
     5.1693   6.5985   6.6045   8.3084   8.5498   9.7107   9.9227  10.6750
    21.2748  22.2006  24.0833  24.4684

          k = 0.2500 0.2500 0.6966 (  4864 PWs)   bands (ev):

    -8.5797  -8.0038  -6.7451  -6.6259   1.1223   2.3106   3.8106   3.9720
     4.3020   6.4044   7.0878   8.6478   9.0044   9.4027   9.4903  10.1176
    21.1935  21.6938  23.9170  24.0783

          k = 0.2500-0.5000 0.0000 (  4850 PWs)   bands (ev):

    -9.8694  -9.8694  -7.2771  -7.2771   2.8263   2.8263   6.5842   6.5842
     7.4445   7.4445   8.2680   8.2680   8.8886   8.8886  10.4245  10.4245
    20.6323  20.6323  22.4122  22.4122

          k = 0.2500-0.5000 0.1741 (  4870 PWs)   bands (ev):

    -9.7182  -9.7182  -7.1973  -7.1973   2.8313   2.8313   6.0060   6.0060
     7.1414   7.1414   8.1879   8.1879   8.8677   8.8677  10.5123  10.5123
    21.2383  21.2383  23.0093  23.0093

          k = 0.2500-0.5000 0.3483 (  4858 PWs)   bands (ev):

    -9.2939  -9.2939  -7.0002  -7.0002   2.6160   2.6160   5.0509   5.0509
     6.1163   6.1163   8.1756   8.1756   9.0834   9.0834  10.5098  10.5098
    21.8388  21.8388  24.1836  24.1839

          k = 0.2500-0.5000 0.5224 (  4862 PWs)   bands (ev):

    -8.7024  -8.7024  -6.8114  -6.8114   1.8827   1.8827   4.3181   4.3181
     5.4191   5.4191   8.2373   8.2373   9.3516   9.3516  10.3546  10.3546
    21.3732  21.3733  23.9538  23.9539

          k = 0.2500-0.5000 0.6966 (  4888 PWs)   bands (ev):

    -8.1951  -8.1951  -6.7602  -6.7602   1.2559   1.2559   3.6216   3.6216
     5.5253   5.5253   8.1952   8.1952   9.5303   9.5303  10.2322  10.2322
    20.9218  20.9218  23.4527  23.4527

          k =-0.5000-0.5000 0.0000 (  4844 PWs)   bands (ev):

    -9.5194  -9.5194  -7.8496  -7.8496   3.8163   3.8163   5.7339   5.7339
     7.7684   7.7684   8.4924   8.4924   9.1950   9.1950   9.4575   9.4575
    20.5133  20.5133  22.9839  22.9839

          k =-0.5000-0.5000 0.1741 (  4864 PWs)   bands (ev):

    -9.3803  -9.3803  -7.7387  -7.7387   3.5462   3.5462   5.7280   5.7280
     7.5032   7.5032   7.5549   7.5549   9.5461   9.5461   9.7552   9.7552
    21.0700  21.0700  23.5169  23.5169

          k =-0.5000-0.5000 0.3483 (  4868 PWs)   bands (ev):

    -8.9986  -8.9986  -7.4381  -7.4381   2.6924   2.6924   5.2067   5.2067
     6.8025   6.8025   7.1688   7.1688   9.7801   9.7801  10.1336  10.1336
    21.5634  21.5634  24.1801  24.1801

          k =-0.5000-0.5000 0.5224 (  4892 PWs)   bands (ev):

    -8.4975  -8.4975  -7.0535  -7.0535   1.5449   1.5449   4.0250   4.0250
     6.9700   6.9700   7.1313   7.1313  10.0648  10.0648  10.2029  10.2029
    21.0213  21.0213  23.8869  23.8869

          k =-0.5000-0.5000 0.6966 (  4892 PWs)   bands (ev):

    -8.1152  -8.1152  -6.7699  -6.7699   0.7330   0.7330   3.2243   3.2243
     7.2107   7.2107   7.2393   7.2393  10.1293  10.1293  10.2631  10.2631
    20.4740  20.4740  23.7074  23.7075

     the Fermi energy is    16.8866 ev

!    total energy              =    -190.02499955 Ry
     estimated scf accuracy    <          6.9E-10 Ry
     smearing contrib. (-TS)   =       0.00000000 Ry
     internal energy E=F+TS    =    -190.02499955 Ry

     The total energy is F=E-TS. E is the sum of the following terms:
     one-electron contribution =      -7.17103412 Ry
     hartree contribution      =      30.37436243 Ry
     xc contribution           =     -43.66323327 Ry
     ewald contribution        =    -131.58864910 Ry
     one-center paw contrib.   =     -37.97644549 Ry

     convergence has been achieved in  10 iterations

     Forces acting on atoms (cartesian axes, Ry/au):

     atom    1 type  1   force =     0.00000000    0.00000000   -0.00000000
     atom    2 type  1   force =     0.00000000    0.00000000    0.00000000
     atom    3 type  2   force =    -0.02232556   -0.02232556   -0.00000000
     atom    4 type  2   force =     0.02232556    0.02232556    0.00000000
     atom    5 type  2   force =     0.02232556   -0.02232556    0.00000000
     atom    6 type  2   force =    -0.02232556    0.02232556   -0.00000000

     Total force =     0.063146     Total SCF correction =     0.000018


     Computing stress (Cartesian axis) and pressure

          total   stress  (Ry/bohr**3)                   (kbar)     P=      474.02
   0.00301245   0.00000000   0.00000000          443.15        0.00        0.00
   0.00000000   0.00301245   0.00000000            0.00      443.15        0.00
   0.00000000   0.00000000   0.00364217            0.00        0.00      535.78


     BFGS Geometry Optimization
     Energy error            =      6.2E-03 Ry
     Gradient error          =      2.2E-02 Ry/Bohr
     Cell gradient error     =      4.7E+01 kbar

     number of scf cycles    =   1
     number of bfgs steps    =   0

     enthalpy           new  =    -189.0653592879 Ry

     new trust radius        =       0.0315731127 bohr
     new conv_thr            =       0.0000000100 Ry

     new unit-cell volume =    285.73403 a.u.^3 (    42.34141 Ang^3 )
     density =      4.71265 g/cm^3

CELL_PARAMETERS (angstrom)
   4.027373931   0.000000000   0.000000000
   0.000000000   4.027373931   0.000000000
   0.000000000   0.000000000   2.610486486

ATOMIC_POSITIONS (angstrom)
Si               0.0000000000        0.0000000000       -0.0000000000
Si               2.0136869654        2.0136869654        1.3052432429
O                1.2211798752        1.2211798752       -0.0000000000
O                2.8061940556        2.8061940556        0.0000000000
O                0.7925070902        3.2348668407        1.3052432429
O                3.2348668407        0.7925070902        1.3052432429



     Writing config-only to output data dir ./SiO2.save/ :
     XML data file
     NEW-OLD atomic charge density approx. for the potential
     New effective cutoffs (rho, wfc):  406.22  101.60

     Check: negative core charge=   -0.000002

     total cpu time spent up to now is       68.8 secs

     Self-consistent Calculation

     iteration #  1     ecut=   100.00 Ry     beta= 0.70
     Davidson diagonalization with overlap
     ethr =  1.00E-06,  avg # of iterations =  9.8

     total cpu time spent up to now is       83.3 secs

     total energy              =    -190.02050213 Ry
     estimated scf accuracy    <       0.00133272 Ry

     iteration #  2     ecut=   100.00 Ry     beta= 0.70
     Davidson diagonalization with overlap
     ethr =  4.16E-06,  avg # of iterations =  2.0

     total cpu time spent up to now is       89.0 secs

     total energy              =    -190.02069055 Ry
     estimated scf accuracy    <       0.00003147 Ry

     iteration #  3     ecut=   100.00 Ry     beta= 0.70
     Davidson diagonalization with overlap
     ethr =  9.83E-08,  avg # of iterations =  2.0

     total cpu time spent up to now is       94.3 secs

     total energy              =    -190.02069452 Ry
     estimated scf accuracy    <       0.00000236 Ry

     iteration #  4     ecut=   100.00 Ry     beta= 0.70
     Davidson diagonalization with overlap
     ethr =  7.38E-09,  avg # of iterations =  2.0

     total cpu time spent up to now is      100.0 secs

     total energy              =    -190.02069488 Ry
     estimated scf accuracy    <       0.00000017 Ry

     iteration #  5     ecut=   100.00 Ry     beta= 0.70
     Davidson diagonalization with overlap
     ethr =  5.23E-10,  avg # of iterations =  2.5

     total cpu time spent up to now is      106.1 secs

     End of self-consistent calculation

          k = 0.0000 0.0000 0.0000 (  4887 PWs)   bands (ev):

   -11.3662  -7.2463  -7.2463  -6.7631   0.5826   5.0775   5.2679   5.2679
     6.2851   6.7304   8.7586   8.7586   9.7112  11.2950  11.2950  12.2403
    19.1000  19.5031  21.2973  21.2973

          k = 0.0000 0.0000 0.1728 (  4875 PWs)   bands (ev):

   -11.1873  -7.1537  -7.1537  -6.7566   0.6522   5.2726   5.4108   5.4108
     5.8144   6.4785   8.1768   8.1768   9.1457  11.1495  11.1495  12.0493
    20.0656  20.0809  22.0662  22.0662

          k = 0.0000 0.0000 0.3456 (  4884 PWs)   bands (ev):

   -10.6659  -6.9056  -6.9056  -6.8183   0.8251   5.0042   5.6303   5.8167
     5.8167   5.8459   6.9023   6.9023   8.0137  10.7033  10.7033  11.4589
    20.9901  22.3067  22.9044  23.8346

          k = 0.0000 0.0000 0.5184 (  4824 PWs)   bands (ev):

    -9.8545  -7.1496  -6.5953  -6.5953   1.1057   4.2539   4.7134   5.6056
     5.6056   6.4652   6.4652   6.7578   6.9373  10.0212  10.0212  10.4792
    21.4535  23.9245  23.9348  25.5837

          k = 0.0000 0.0000 0.6912 (  4848 PWs)   bands (ev):

    -8.8610  -7.8755  -6.3725  -6.3725   1.7191   2.8196   4.8542   4.8542
     5.1234   5.9508   7.0556   7.0556   7.9310   9.2347   9.3638   9.3638
    22.1511  23.2497  25.2333  26.4570

          k = 0.0000 0.2520 0.0000 (  4874 PWs)   bands (ev):

   -10.9977  -8.4632  -7.0502  -6.3507   1.0354   3.8995   5.5069   6.3160
     6.5588   7.6430   8.2361   8.9319   9.6693  10.0320  11.1880  11.7430
    19.7559  20.2709  21.5602  21.5701

          k = 0.0000 0.2520 0.1728 (  4856 PWs)   bands (ev):

   -10.8239  -8.3434  -6.9709  -6.3435   1.1565   4.0072   5.1975   5.9823
     6.9256   6.9346   8.1481   8.4283   8.8783  10.3049  11.0291  11.6763
    20.6770  20.7113  22.2276  22.2980

          k = 0.0000 0.2520 0.3456 (  4856 PWs)   bands (ev):

   -10.3201  -8.0248  -6.7684  -6.3761   1.4518   4.1949   4.2329   5.5811
     6.0143   7.2918   7.3632   7.5680   8.0174  10.3447  10.5620  11.3506
    21.4356  22.7133  23.4507  23.8435

          k = 0.0000 0.2520 0.5184 (  4874 PWs)   bands (ev):

    -9.5459  -7.6837  -6.5515  -6.5344   1.7029   3.5765   3.7567   5.0055
     5.4360   5.9492   7.6002   7.6781   7.8648   9.9108  10.0903  10.7057
    21.7746  23.5304  23.6422  24.8563

          k = 0.0000 0.2520 0.6912 (  4848 PWs)   bands (ev):

    -8.6299  -7.8426  -6.5814  -6.4757   1.9428   2.5560   4.0384   4.5617
     4.9732   5.2295   7.5957   7.9369   8.5952   9.5062   9.5561   9.9485
    22.1281  22.7883  24.0853  24.5516

          k = 0.0000-0.5040 0.0000 (  4880 PWs)   bands (ev):

    -9.9531  -9.9531  -6.5975  -6.5975   2.2171   2.2171   7.3006   7.3006
     7.3497   7.3497   7.8422   7.8422   9.3391   9.3391  11.1078  11.1078
    21.0250  21.0250  21.9647  21.9647

          k = 0.0000-0.5040 0.1728 (  4870 PWs)   bands (ev):

    -9.7972  -9.7972  -6.5560  -6.5560   2.3606   2.3606   5.9799   5.9799
     7.5287   7.5287   8.2549   8.2549   9.1012   9.1012  10.9996  10.9996
    21.7104  21.7104  22.6383  22.6383

          k = 0.0000-0.5040 0.3456 (  4858 PWs)   bands (ev):

    -9.3537  -9.3537  -6.4798  -6.4798   2.7504   2.7504   4.4007   4.4007
     6.7239   6.7239   8.4620   8.4620   9.0727   9.0727  10.7225  10.7225
    22.7079  22.7079  23.8281  23.8281

          k = 0.0000-0.5040 0.5184 (  4878 PWs)   bands (ev):

    -8.7110  -8.7110  -6.4988  -6.4988   3.0996   3.0996   3.2186   3.2186
     5.6988   5.6988   8.2191   8.2191   9.3850   9.3850  10.4449  10.4449
    22.4892  22.4892  23.4329  23.4329

          k = 0.0000-0.5040 0.6912 (  4862 PWs)   bands (ev):

    -8.1028  -8.1028  -6.6863  -6.6863   2.4197   2.4197   3.4113   3.4113
     5.2422   5.2422   7.8075   7.8075   9.6966   9.6966  10.2691  10.2691
    21.9976  21.9976  23.3740  23.3740

          k = 0.2520 0.2520 0.0000 (  4881 PWs)   bands (ev):

   -10.6492  -8.6225  -7.5049  -6.4770   1.6443   4.0929   5.3193   6.8202
     6.8212   7.8914   8.2466   8.6734   9.5097   9.5817  10.6303  11.3364
    19.9542  20.8623  21.6491  22.3700

          k = 0.2520 0.2520 0.1728 (  4862 PWs)   bands (ev):

   -10.4812  -8.5033  -7.4038  -6.4512   1.7505   3.8532   5.4172   6.3214
     6.8415   7.1745   8.1730   8.4077   8.7010  10.0623  10.5908  11.3949
    20.6489  21.5010  22.1529  23.0573

          k = 0.2520 0.2520 0.3456 (  4856 PWs)   bands (ev):

    -9.9967  -8.1875  -7.1315  -6.4258   1.9486   3.1725   5.1774   5.4586
     6.3615   6.5242   7.3180   7.8932   8.7044  10.1603  10.4337  11.2732
    21.4466  22.7379  23.3544  24.2661

          k = 0.2520 0.2520 0.5184 (  4860 PWs)   bands (ev):

    -9.2642  -7.8339  -6.7872  -6.5166   1.6849   2.7349   4.2083   4.6454
     5.2991   6.7118   6.8393   8.4169   8.6590   9.9715  10.0955  10.8433
    21.4381  22.4187  24.3861  24.7593

          k = 0.2520 0.2520 0.6912 (  4864 PWs)   bands (ev):

    -8.4373  -7.8242  -6.6737  -6.5370   1.2353   2.4559   3.9330   4.1197
     4.4288   6.6409   7.1594   8.7609   9.1366   9.6643   9.6674  10.2656
    21.3638  21.9656  24.3359  24.3462

          k = 0.2520-0.5040 0.0000 (  4850 PWs)   bands (ev):

    -9.6928  -9.6928  -7.1188  -7.1188   2.9548   2.9548   6.7487   6.7487
     7.5179   7.5179   8.3301   8.3301   9.0363   9.0363  10.6002  10.6002
    20.8193  20.8193  22.5093  22.5093

          k = 0.2520-0.5040 0.1728 (  4870 PWs)   bands (ev):

    -9.5438  -9.5438  -7.0446  -7.0446   2.9409   2.9409   6.1318   6.1318
     7.2467   7.2467   8.2840   8.2840   9.0336   9.0336  10.6990  10.6990
    21.4186  21.4186  23.0829  23.0829

          k = 0.2520-0.5040 0.3456 (  4858 PWs)   bands (ev):

    -9.1248  -9.1248  -6.8646  -6.8646   2.6784   2.6784   5.2009   5.2009
     6.2248   6.2248   8.3396   8.3396   9.2489   9.2489  10.7159  10.7159
    22.0040  22.0040  24.2827  24.2828

          k = 0.2520-0.5040 0.5184 (  4862 PWs)   bands (ev):

    -8.5367  -8.5367  -6.7046  -6.7046   1.9480   1.9480   4.4288   4.4288
     5.5982   5.5982   8.3928   8.3928   9.5362   9.5362  10.5684  10.5684
    21.5363  21.5363  24.2416  24.2416

          k = 0.2520-0.5040 0.6912 (  4888 PWs)   bands (ev):

    -8.0230  -8.0230  -6.6868  -6.6868   1.3524   1.3524   3.7232   3.7232
     5.7117   5.7117   8.3304   8.3304   9.7532   9.7532  10.4282  10.4282
    21.0950  21.0950  23.7522  23.7522

          k =-0.5040-0.5040 0.0000 (  4844 PWs)   bands (ev):

    -9.3037  -9.3037  -7.7428  -7.7428   3.9208   3.9208   5.9738   5.9738
     7.8810   7.8810   8.5899   8.5899   9.1803   9.1803   9.6550   9.6550
    20.7351  20.7351  23.1202  23.1202

          k =-0.5040-0.5040 0.1728 (  4864 PWs)   bands (ev):

    -9.1680  -9.1680  -7.6347  -7.6347   3.6237   3.6237   5.9531   5.9531
     7.5876   7.5876   7.6698   7.6698   9.7392   9.7392   9.8431   9.8431
    21.2696  21.2696  23.6541  23.6541

          k =-0.5040-0.5040 0.3456 (  4868 PWs)   bands (ev):

    -8.7959  -8.7959  -7.3420  -7.3420   2.7360   2.7360   5.3308   5.3308
     6.9027   6.9027   7.4202   7.4202   9.9612   9.9612  10.3035  10.3035
    21.7108  21.7108  24.3482  24.3482

          k =-0.5040-0.5040 0.5184 (  4892 PWs)   bands (ev):

    -8.3079  -8.3079  -6.9683  -6.9683   1.5925   1.5925   4.1106   4.1106
     7.0800   7.0800   7.4210   7.4210  10.2305  10.2305  10.4475  10.4475
    21.1431  21.1431  24.0893  24.0895

          k =-0.5040-0.5040 0.6912 (  4892 PWs)   bands (ev):

    -7.9363  -7.9363  -6.6935  -6.6935   0.7954   0.7954   3.3125   3.3125
     7.3185   7.3185   7.5092   7.5092  10.4175  10.4175  10.4306  10.4306
    20.5970  20.5970  24.0105  24.0105

     the Fermi energy is    17.3414 ev

!    total energy              =    -190.02069492 Ry
     estimated scf accuracy    <          4.5E-09 Ry
     smearing contrib. (-TS)   =       0.00000000 Ry
     internal energy E=F+TS    =    -190.02069492 Ry

     The total energy is F=E-TS. E is the sum of the following terms:
     one-electron contribution =      -6.20293567 Ry
     hartree contribution      =      30.06902486 Ry
     xc contribution           =     -43.68070999 Ry
     ewald contribution        =    -132.23072947 Ry
     one-center paw contrib.   =     -37.97534465 Ry

     convergence has been achieved in   5 iterations

     Forces acting on atoms (cartesian axes, Ry/au):

     atom    1 type  1   force =     0.00000000    0.00000000    0.00000000
     atom    2 type  1   force =     0.00000000    0.00000000    0.00000000
     atom    3 type  2   force =    -0.00411434   -0.00411434   -0.00000000
     atom    4 type  2   force =     0.00411434    0.00411434    0.00000000
     atom    5 type  2   force =     0.00411434   -0.00411434   -0.00000000
     atom    6 type  2   force =    -0.00411434    0.00411434    0.00000000

     Total force =     0.011637     Total SCF correction =     0.000061


     Computing stress (Cartesian axis) and pressure

          total   stress  (Ry/bohr**3)                   (kbar)     P=      488.93
   0.00330338   0.00000000   0.00000000          485.94        0.00        0.00
   0.00000000   0.00330338   0.00000000            0.00      485.94        0.00
   0.00000000   0.00000000   0.00336420            0.00        0.00      494.89

     Energy error            =      3.6E-03 Ry
     Gradient error          =      4.1E-03 Ry/Bohr
     Cell gradient error     =      4.9E+00 kbar

     number of scf cycles    =   2
     number of bfgs steps    =   1

     enthalpy           old  =    -189.0653592879 Ry
     enthalpy           new  =    -189.0689285100 Ry

     CASE: enthalpy          _new < enthalpy          _old

     new trust radius        =       0.0068274876 bohr
     new conv_thr            =       0.0000000004 Ry

     new unit-cell volume =    285.53303 a.u.^3 (    42.31163 Ang^3 )
     density =      4.71597 g/cm^3

CELL_PARAMETERS (angstrom)
   4.023993198   0.000000000   0.000000000
   0.000000000   4.023993198   0.000000000
   0.000000000   0.000000000   2.613035345

ATOMIC_POSITIONS (angstrom)
Si               0.0000000000        0.0000000000       -0.0000000000
Si               2.0119965990        2.0119965990        1.3065176725
O                1.2176021723        1.2176021723       -0.0000000000
O                2.8063910257        2.8063910257        0.0000000000
O                0.7943944267        3.2295987713        1.3065176725
O                3.2295987713        0.7943944267        1.3065176725



     Writing config-only to output data dir ./SiO2.save/ :
     XML data file
     NEW-OLD atomic charge density approx. for the potential
     New effective cutoffs (rho, wfc):  406.91  101.77

     Check: negative core charge=   -0.000001

     total cpu time spent up to now is      113.0 secs

     Self-consistent Calculation

     iteration #  1     ecut=   100.00 Ry     beta= 0.70
     Davidson diagonalization with overlap
     c_bands:  1 eigenvalues not converged
     ethr =  1.00E-06,  avg # of iterations =  4.7

     total cpu time spent up to now is      121.9 secs

     total energy              =    -190.02010554 Ry
     estimated scf accuracy    <       0.00004766 Ry

     iteration #  2     ecut=   100.00 Ry     beta= 0.70
     Davidson diagonalization with overlap
     ethr =  1.49E-07,  avg # of iterations =  2.1

     total cpu time spent up to now is      127.5 secs

     total energy              =    -190.02011223 Ry
     estimated scf accuracy    <       0.00000126 Ry

     iteration #  3     ecut=   100.00 Ry     beta= 0.70
     Davidson diagonalization with overlap
     ethr =  3.94E-09,  avg # of iterations =  2.6

     total cpu time spent up to now is      133.7 secs

     total energy              =    -190.02011256 Ry
     estimated scf accuracy    <       0.00000014 Ry

     iteration #  4     ecut=   100.00 Ry     beta= 0.70
     Davidson diagonalization with overlap
     ethr =  4.36E-10,  avg # of iterations =  2.1

     total cpu time spent up to now is      139.7 secs

     total energy              =    -190.02011259 Ry
     estimated scf accuracy    <       0.00000002 Ry

     iteration #  5     ecut=   100.00 Ry     beta= 0.70
     Davidson diagonalization with overlap
     ethr =  4.87E-11,  avg # of iterations =  2.0

     total cpu time spent up to now is      144.9 secs

     total energy              =    -190.02011259 Ry
     estimated scf accuracy    <          5.2E-10 Ry

     iteration #  6     ecut=   100.00 Ry     beta= 0.70
     Davidson diagonalization with overlap
     ethr =  1.63E-12,  avg # of iterations =  3.1

     total cpu time spent up to now is      151.3 secs

     End of self-consistent calculation

          k = 0.0000 0.0000 0.0000 (  4887 PWs)   bands (ev):

   -11.3514  -7.2364  -7.2364  -6.7069   0.5556   5.0775   5.2762   5.2762
     6.2894   6.7657   8.7743   8.7743   9.7547  11.3096  11.3096  12.2621
    19.1078  19.5093  21.2809  21.2809

          k = 0.0000 0.0000 0.1726 (  4875 PWs)   bands (ev):

   -11.1726  -7.1442  -7.1442  -6.7032   0.6268   5.2723   5.4186   5.4186
     5.8232   6.5126   8.1930   8.1930   9.1872  11.1641  11.1641  12.0681
    20.0675  20.0862  22.0507  22.0507

          k = 0.0000 0.0000 0.3453 (  4884 PWs)   bands (ev):

   -10.6517  -6.8973  -6.8973  -6.7736   0.8078   5.0198   5.6646   5.8232
     5.8232   5.8448   6.9194   6.9194   8.0467  10.7183  10.7183  11.4704
    20.9803  22.3101  22.9218  23.8245

          k = 0.0000 0.0000 0.5179 (  4824 PWs)   bands (ev):

    -9.8405  -7.1177  -6.5886  -6.5886   1.1071   4.2903   4.7289   5.6288
     5.6288   6.4636   6.4636   6.7558   6.9578  10.0388  10.0388  10.4830
    21.4556  23.9408  23.9566  25.5942

          k = 0.0000 0.0000 0.6905 (  4848 PWs)   bands (ev):

    -8.8455  -7.8546  -6.3672  -6.3672   1.7410   2.8531   4.8784   4.8784
     5.1351   5.9634   7.0472   7.0472   7.9286   9.2338   9.3879   9.3879
    22.1696  23.2760  25.2489  26.2398

          k = 0.0000 0.2522 0.0000 (  4874 PWs)   bands (ev):

   -10.9816  -8.4395  -7.0382  -6.3189   1.0224   3.9170   5.5154   6.3108
     6.5647   7.6532   8.2515   8.9503   9.7056  10.0466  11.2070  11.7654
    19.7672  20.2774  21.5579  21.5634

          k = 0.0000 0.2522 0.1726 (  4856 PWs)   bands (ev):

   -10.8080  -8.3199  -6.9595  -6.3140   1.1437   4.0248   5.2056   5.9842
     6.9347   6.9376   8.1666   8.4479   8.9059  10.3259  11.0480  11.6973
    20.6856  20.7144  22.2300  22.2866

          k = 0.0000 0.2522 0.3453 (  4856 PWs)   bands (ev):

   -10.3047  -8.0012  -6.7586  -6.3541   1.4414   4.2143   4.2462   5.5906
     6.0206   7.3209   7.3646   7.5882   8.0294  10.3657  10.5811  11.3676
    21.4336  22.7201  23.4330  23.8678

          k = 0.0000 0.2522 0.5179 (  4874 PWs)   bands (ev):

    -9.5305  -7.6576  -6.5442  -6.5255   1.7062   3.6013   3.7681   5.0125
     5.4537   5.9781   7.6041   7.6876   7.8645   9.9332  10.1115  10.7177
    21.7762  23.5436  23.6524  24.9043

          k = 0.0000 0.2522 0.6905 (  4848 PWs)   bands (ev):

    -8.6125  -7.8187  -6.5797  -6.4713   1.9641   2.5830   4.0429   4.5710
     4.9963   5.2514   7.5934   7.9293   8.6062   9.5244   9.5811   9.9625
    22.1374  22.8021  24.1175  24.6016

          k = 0.0000-0.5044 0.0000 (  4880 PWs)   bands (ev):

    -9.9335  -9.9335  -6.5787  -6.5787   2.2256   2.2256   7.3111   7.3111
     7.3507   7.3507   7.8416   7.8416   9.3652   9.3652  11.1351  11.1351
    21.0410  21.0410  21.9614  21.9614

          k = 0.0000-0.5044 0.1726 (  4870 PWs)   bands (ev):

    -9.7777  -9.7777  -6.5383  -6.5383   2.3684   2.3684   5.9852   5.9852
     7.5380   7.5380   8.2540   8.2540   9.1287   9.1287  11.0261  11.0261
    21.7230  21.7230  22.6341  22.6341

          k = 0.0000-0.5044 0.3453 (  4858 PWs)   bands (ev):

    -9.3346  -9.3346  -6.4654  -6.4654   2.7558   2.7558   4.4123   4.4123
     6.7379   6.7379   8.4643   8.4643   9.0952   9.0952  10.7473  10.7473
    22.7164  22.7164  23.8466  23.8466

          k = 0.0000-0.5044 0.5179 (  4878 PWs)   bands (ev):

    -8.6915  -8.6915  -6.4902  -6.4902   3.1187   3.1187   3.2202   3.2202
     5.7203   5.7203   8.2187   8.2187   9.4056   9.4056  10.4674  10.4674
    22.4917  22.4917  23.4656  23.4656

          k = 0.0000-0.5044 0.6905 (  4862 PWs)   bands (ev):

    -8.0797  -8.0797  -6.6855  -6.6855   2.4468   2.4468   3.4073   3.4073
     5.2689   5.2689   7.8047   7.8047   9.7183   9.7183  10.2882  10.2882
    22.0003  22.0003  23.4117  23.4117

          k = 0.2522 0.2522 0.0000 (  4881 PWs)   bands (ev):

   -10.6316  -8.5932  -7.4972  -6.4537   1.6414   4.1043   5.3382   6.8145
     6.8290   7.8889   8.2662   8.6878   9.5407   9.6008  10.6462  11.3525
    19.9677  20.8751  21.6680  22.3621

          k = 0.2522 0.2522 0.1726 (  4862 PWs)   bands (ev):

   -10.4638  -8.4743  -7.3965  -6.4295   1.7464   3.8626   5.4357   6.3359
     6.8335   7.1837   8.1883   8.4289   8.7106  10.0934  10.6060  11.4134
    20.6577  21.5119  22.1636  23.0469

          k = 0.2522 0.2522 0.3453 (  4856 PWs)   bands (ev):

    -9.9798  -8.1594  -7.1253  -6.4091   1.9420   3.1818   5.1996   5.4749
     6.3760   6.5202   7.3452   7.9039   8.7086  10.1945  10.4482  11.2934
    21.4450  22.7303  23.3611  24.2884

          k = 0.2522 0.2522 0.5179 (  4860 PWs)   bands (ev):

    -9.2473  -7.8062  -6.7825  -6.5085   1.6896   2.7392   4.2358   4.6578
     5.3115   6.7121   6.8707   8.4237   8.6611  10.0062  10.1129  10.8608
    21.4342  22.4233  24.4116  24.7887

          k = 0.2522 0.2522 0.6905 (  4864 PWs)   bands (ev):

    -8.4182  -7.7986  -6.6728  -6.5335   1.2491   2.4707   3.9462   4.1368
     4.4401   6.6710   7.1533   8.7620   9.1470   9.6844   9.7038  10.2796
    21.3607  21.9811  24.3602  24.3946

          k = 0.2522-0.5044 0.0000 (  4850 PWs)   bands (ev):

    -9.6704  -9.6704  -7.1047  -7.1047   2.9640   2.9640   6.7608   6.7608
     7.5310   7.5310   8.3252   8.3252   9.0579   9.0579  10.6172  10.6172
    20.8437  20.8437  22.5169  22.5169

          k = 0.2522-0.5044 0.1726 (  4870 PWs)   bands (ev):

    -9.5217  -9.5217  -7.0311  -7.0311   2.9476   2.9476   6.1439   6.1439
     7.2579   7.2579   8.2887   8.2887   9.0525   9.0525  10.7186  10.7186
    21.4375  21.4375  23.0863  23.0863

          k = 0.2522-0.5044 0.3453 (  4858 PWs)   bands (ev):

    -9.1032  -9.1032  -6.8535  -6.8535   2.6803   2.6803   5.2178   5.2178
     6.2356   6.2356   8.3527   8.3527   9.2652   9.2652  10.7397  10.7397
    22.0042  22.0042  24.2874  24.2875

          k = 0.2522-0.5044 0.5179 (  4862 PWs)   bands (ev):

    -8.5150  -8.5150  -6.6977  -6.6977   1.9526   1.9526   4.4396   4.4396
     5.6178   5.6178   8.4031   8.4031   9.5558   9.5558  10.5940  10.5940
    21.5311  21.5311  24.2654  24.2654

          k = 0.2522-0.5044 0.6905 (  4888 PWs)   bands (ev):

    -7.9991  -7.9991  -6.6854  -6.6854   1.3620   1.3620   3.7324   3.7324
     5.7320   5.7320   8.3372   8.3372   9.7795   9.7795  10.4510  10.4510
    21.0906  21.0906  23.7787  23.7787

          k =-0.5044-0.5044 0.0000 (  4844 PWs)   bands (ev):

    -9.2745  -9.2745  -7.7370  -7.7370   3.9257   3.9257   5.9990   5.9990
     7.9010   7.9010   8.6029   8.6029   9.1624   9.1624   9.6740   9.6740
    20.7667  20.7667  23.1350  23.1350

          k =-0.5044-0.5044 0.1726 (  4864 PWs)   bands (ev):

    -9.1392  -9.1392  -7.6292  -7.6292   3.6260   3.6260   5.9782   5.9782
     7.5828   7.5828   7.6963   7.6963   9.7576   9.7576   9.8466   9.8466
    21.2927  21.2927  23.6678  23.6678

          k =-0.5044-0.5044 0.3453 (  4868 PWs)   bands (ev):

    -8.7683  -8.7683  -7.3375  -7.3375   2.7359   2.7359   5.3457   5.3457
     6.9017   6.9017   7.4563   7.4563   9.9780   9.9780  10.3209  10.3209
    21.7084  21.7084  24.3617  24.3617

          k =-0.5044-0.5044 0.5179 (  4892 PWs)   bands (ev):

    -8.2819  -8.2819  -6.9652  -6.9652   1.5944   1.5944   4.1196   4.1196
     7.0795   7.0795   7.4613   7.4613  10.2452  10.2452  10.4784  10.4784
    21.1287  21.1287  24.1022  24.1023

          k =-0.5044-0.5044 0.6905 (  4892 PWs)   bands (ev):

    -7.9115  -7.9115  -6.6915  -6.6915   0.7997   0.7997   3.3213   3.3213
     7.3131   7.3131   7.5505   7.5505  10.4306  10.4306  10.4717  10.4717
    20.5812  20.5812  24.0282  24.0282

     the Fermi energy is    17.1822 ev

!    total energy              =    -190.02011259 Ry
     estimated scf accuracy    <          7.0E-11 Ry
     smearing contrib. (-TS)   =       0.00000000 Ry
     internal energy E=F+TS    =    -190.02011259 Ry

     The total energy is F=E-TS. E is the sum of the following terms:
     one-electron contribution =      -6.08477400 Ry
     hartree contribution      =      30.02662879 Ry
     xc contribution           =     -43.68052366 Ry
     ewald contribution        =    -132.30620712 Ry
     one-center paw contrib.   =     -37.97523660 Ry

     convergence has been achieved in   6 iterations

     Forces acting on atoms (cartesian axes, Ry/au):

     atom    1 type  1   force =     0.00000000    0.00000000    0.00000000
     atom    2 type  1   force =     0.00000000    0.00000000    0.00000000
     atom    3 type  2   force =     0.00014663    0.00014663    0.00000000
     atom    4 type  2   force =    -0.00014663   -0.00014663    0.00000000
     atom    5 type  2   force =    -0.00014663    0.00014663    0.00000000
     atom    6 type  2   force =     0.00014663   -0.00014663    0.00000000

     Total force =     0.000415     Total SCF correction =     0.000015


     Computing stress (Cartesian axis) and pressure

          total   stress  (Ry/bohr**3)                   (kbar)     P=      488.76
   0.00332538   0.00000000   0.00000000          489.18        0.00        0.00
   0.00000000   0.00332538   0.00000000            0.00      489.18        0.00
   0.00000000   0.00000000   0.00331673            0.00        0.00      487.91

     Energy error            =      8.7E-05 Ry
     Gradient error          =      1.5E-04 Ry/Bohr
     Cell gradient error     =      2.1E+00 kbar

     number of scf cycles    =   3
     number of bfgs steps    =   2

     enthalpy           old  =    -189.0689285100 Ry
     enthalpy           new  =    -189.0690156724 Ry

     CASE: enthalpy          _new < enthalpy          _old

     new trust radius        =       0.0011178687 bohr
     new conv_thr            =            1.0E-10 Ry

     new unit-cell volume =    285.36013 a.u.^3 (    42.28601 Ang^3 )
     density =      4.71883 g/cm^3

CELL_PARAMETERS (angstrom)
   4.023440142   0.000000000   0.000000000
   0.000000000   4.023440142   0.000000000
   0.000000000   0.000000000   2.612171018

ATOMIC_POSITIONS (angstrom)
Si               0.0000000000        0.0000000000       -0.0000000000
Si               2.0117200711        2.0117200711        1.3060855092
O                1.2174996808        1.2174996808       -0.0000000000
O                2.8059404613        2.8059404613        0.0000000000
O                0.7942203902        3.2292197519        1.3060855092
O                3.2292197519        0.7942203902        1.3060855092



     Writing config-only to output data dir ./SiO2.save/ :
     XML data file
     NEW-OLD atomic charge density approx. for the potential
     New effective cutoffs (rho, wfc):  407.02  101.80

     Check: negative core charge=   -0.000001

     total cpu time spent up to now is      157.9 secs

     Self-consistent Calculation

     iteration #  1     ecut=   100.00 Ry     beta= 0.70
     Davidson diagonalization with overlap
     ethr =  1.00E-06,  avg # of iterations =  2.0

     Threshold (ethr) on eigenvalues was too large:
     Diagonalizing with lowered threshold

     Davidson diagonalization with overlap
     ethr =  6.06E-10,  avg # of iterations =  3.8

     total cpu time spent up to now is      171.4 secs

     total energy              =    -190.01953637 Ry
     estimated scf accuracy    <       0.00000023 Ry

     iteration #  2     ecut=   100.00 Ry     beta= 0.70
     Davidson diagonalization with overlap
     ethr =  7.22E-10,  avg # of iterations =  2.4

     total cpu time spent up to now is      177.4 secs

     total energy              =    -190.01953642 Ry
     estimated scf accuracy    <       0.00000005 Ry

     iteration #  3     ecut=   100.00 Ry     beta= 0.70
     Davidson diagonalization with overlap
     ethr =  1.60E-10,  avg # of iterations =  2.0

     total cpu time spent up to now is      182.7 secs

     total energy              =    -190.01953643 Ry
     estimated scf accuracy    <          9.6E-10 Ry

     iteration #  4     ecut=   100.00 Ry     beta= 0.70
     Davidson diagonalization with overlap
     ethr =  3.00E-12,  avg # of iterations =  2.3

     total cpu time spent up to now is      188.7 secs

     End of self-consistent calculation

          k = 0.0000 0.0000 0.0000 (  4887 PWs)   bands (ev):

   -11.3483  -7.2300  -7.2300  -6.7016   0.5630   5.0824   5.2823   5.2823
     6.2989   6.7721   8.7835   8.7835   9.7644  11.3195  11.3195  12.2724
    19.1224  19.5327  21.2997  21.2997

          k = 0.0000 0.0000 0.1727 (  4875 PWs)   bands (ev):

   -11.1693  -7.1377  -7.1377  -6.6978   0.6343   5.2773   5.4247   5.4247
     5.8318   6.5191   8.2017   8.2017   9.1968  11.1739  11.1739  12.0783
    20.0907  20.1018  22.0699  22.0699

          k = 0.0000 0.0000 0.3454 (  4884 PWs)   bands (ev):

   -10.6480  -6.8904  -6.8904  -6.7676   0.8151   5.0269   5.6713   5.8297
     5.8297   5.8503   6.9270   6.9270   8.0559  10.7277  10.7277  11.4804
    21.0020  22.3282  22.9377  23.8441

          k = 0.0000 0.0000 0.5180 (  4824 PWs)   bands (ev):

    -9.8360  -7.1113  -6.5812  -6.5812   1.1139   4.2969   4.7354   5.6349
     5.6349   6.4710   6.4710   6.7621   6.9662  10.0475  10.0475  10.4924
    21.4745  23.9617  23.9744  25.6126

          k = 0.0000 0.0000 0.6907 (  4848 PWs)   bands (ev):

    -8.8401  -7.8484  -6.3593  -6.3593   1.7473   2.8595   4.8839   4.8839
     5.1421   5.9711   7.0554   7.0554   7.9360   9.2423   9.3957   9.3957
    22.1879  23.2954  25.2668  26.2566

          k = 0.0000 0.2523 0.0000 (  4874 PWs)   bands (ev):

   -10.9783  -8.4348  -7.0318  -6.3123   1.0289   3.9224   5.5213   6.3177
     6.5743   7.6609   8.2609   8.9595   9.7150  10.0559  11.2166  11.7754
    19.7821  20.2999  21.5769  21.5812

          k = 0.0000 0.2523 0.1727 (  4856 PWs)   bands (ev):

   -10.8046  -8.3149  -6.9529  -6.3072   1.1504   4.0303   5.2129   5.9906
     6.9431   6.9457   8.1747   8.4565   8.9152  10.3351  11.0575  11.7073
    20.7015  20.7370  22.2479  22.3060

          k = 0.0000 0.2523 0.3454 (  4856 PWs)   bands (ev):

   -10.3008  -7.9958  -6.7516  -6.3470   1.4486   4.2199   4.2528   5.5990
     6.0270   7.3286   7.3726   7.5953   8.0376  10.3747  10.5903  11.3774
    21.4554  22.7386  23.4510  23.8837

          k = 0.0000 0.2523 0.5180 (  4874 PWs)   bands (ev):

    -9.5258  -7.6518  -6.5366  -6.5179   1.7134   3.6073   3.7740   5.0204
     5.4599   5.9848   7.6118   7.6950   7.8721   9.9417  10.1202  10.7270
    21.7957  23.5628  23.6694  24.9206

          k = 0.0000 0.2523 0.6907 (  4848 PWs)   bands (ev):

    -8.6070  -7.8126  -6.5719  -6.4634   1.9704   2.5890   4.0495   4.5781
     5.0019   5.2575   7.6012   7.9377   8.6137   9.5326   9.5890   9.9710
    22.1555  22.8201  24.1338  24.6171

          k = 0.0000-0.5045 0.0000 (  4880 PWs)   bands (ev):

    -9.9297  -9.9297  -6.5720  -6.5720   2.2310   2.2310   7.3206   7.3206
     7.3593   7.3593   7.8492   7.8492   9.3744   9.3744  11.1444  11.1444
    21.0596  21.0596  21.9803  21.9803

          k = 0.0000-0.5045 0.1727 (  4870 PWs)   bands (ev):

    -9.7738  -9.7738  -6.5314  -6.5314   2.3740   2.3740   5.9940   5.9940
     7.5457   7.5457   8.2628   8.2628   9.1373   9.1373  11.0353  11.0353
    21.7433  21.7433  22.6527  22.6527

          k = 0.0000-0.5045 0.3454 (  4858 PWs)   bands (ev):

    -9.3302  -9.3302  -6.4581  -6.4581   2.7618   2.7618   4.4200   4.4200
     6.7455   6.7455   8.4726   8.4726   9.1033   9.1033  10.7563  10.7563
    22.7384  22.7384  23.8612  23.8612

          k = 0.0000-0.5045 0.5180 (  4878 PWs)   bands (ev):

    -8.6863  -8.6863  -6.4826  -6.4826   3.1256   3.1256   3.2265   3.2265
     5.7268   5.7268   8.2269   8.2269   9.4136   9.4136  10.4762  10.4762
    22.5099  22.5099  23.4810  23.4810

          k = 0.0000-0.5045 0.6907 (  4862 PWs)   bands (ev):

    -8.0739  -8.0739  -6.6778  -6.6778   2.4528   2.4528   3.4141   3.4141
     5.2748   5.2748   7.8126   7.8126   9.7266   9.7266  10.2968  10.2968
    22.0166  22.0166  23.4276  23.4276

          k = 0.2523 0.2523 0.0000 (  4881 PWs)   bands (ev):

   -10.6282  -8.5887  -7.4912  -6.4470   1.6477   4.1110   5.3438   6.8212
     6.8385   7.8975   8.2758   8.6969   9.5500   9.6100  10.6550  11.3625
    19.9847  20.8949  21.6859  22.3810

          k = 0.2523 0.2523 0.1727 (  4862 PWs)   bands (ev):

   -10.4602  -8.4697  -7.3903  -6.4227   1.7529   3.8695   5.4414   6.3441
     6.8407   7.1930   8.1965   8.4375   8.7198  10.1024  10.6149  11.4233
    20.6768  21.5317  22.1812  23.0664

          k = 0.2523 0.2523 0.3454 (  4856 PWs)   bands (ev):

    -9.9757  -8.1543  -7.1187  -6.4019   1.9493   3.1882   5.2068   5.4809
     6.3844   6.5282   7.3528   7.9108   8.7171  10.2031  10.4571  11.3030
    21.4662  22.7502  23.3792  24.3042

          k = 0.2523 0.2523 0.5180 (  4860 PWs)   bands (ev):

    -9.2425  -7.8004  -6.7752  -6.5009   1.6966   2.7455   4.2423   4.6637
     5.3188   6.7198   6.8776   8.4310   8.6694  10.0145  10.1215  10.8700
    21.4535  22.4416  24.4305  24.8001

          k = 0.2523 0.2523 0.6907 (  4864 PWs)   bands (ev):

    -8.4125  -7.7926  -6.6651  -6.5257   1.2550   2.4773   3.9515   4.1436
     4.4464   6.6776   7.1615   8.7703   9.1549   9.6926   9.7118  10.2883
    21.3790  21.9983  24.3710  24.4126

          k = 0.2523-0.5045 0.0000 (  4850 PWs)   bands (ev):

    -9.6665  -9.6665  -7.0984  -7.0984   2.9703   2.9703   6.7684   6.7684
     7.5406   7.5406   8.3335   8.3335   9.0672   9.0672  10.6263  10.6263
    20.8622  20.8622  22.5350  22.5350

          k = 0.2523-0.5045 0.1727 (  4870 PWs)   bands (ev):

    -9.5176  -9.5176  -7.0247  -7.0247   2.9542   2.9542   6.1520   6.1520
     7.2660   7.2660   8.2977   8.2977   9.0607   9.0607  10.7278  10.7278
    21.4573  21.4573  23.1045  23.1045

          k = 0.2523-0.5045 0.3454 (  4858 PWs)   bands (ev):

    -9.0986  -9.0986  -6.8467  -6.8467   2.6873   2.6873   5.2250   5.2250
     6.2430   6.2430   8.3610   8.3610   9.2731   9.2731  10.7487  10.7487
    22.0247  22.0247  24.3048  24.3048

          k = 0.2523-0.5045 0.5180 (  4862 PWs)   bands (ev):

    -8.5097  -8.5097  -6.6903  -6.6903   1.9593   1.9593   4.4460   4.4460
     5.6247   5.6247   8.4112   8.4112   9.5639   9.5639  10.6027  10.6027
    21.5500  21.5500  24.2788  24.2788

          k = 0.2523-0.5045 0.6907 (  4888 PWs)   bands (ev):

    -7.9932  -7.9932  -6.6777  -6.6777   1.3681   1.3681   3.7380   3.7380
     5.7391   5.7391   8.3452   8.3452   9.7876   9.7876  10.4596  10.4596
    21.1087  21.1087  23.7914  23.7914

          k =-0.5045-0.5045 0.0000 (  4844 PWs)   bands (ev):

    -9.2704  -9.2704  -7.7312  -7.7312   3.9336   3.9336   6.0052   6.0052
     7.9107   7.9107   8.6120   8.6120   9.1725   9.1725   9.6814   9.6814
    20.7851  20.7851  23.1532  23.1532

          k =-0.5045-0.5045 0.1727 (  4864 PWs)   bands (ev):

    -9.1350  -9.1350  -7.6233  -7.6233   3.6340   3.6340   5.9845   5.9845
     7.5919   7.5919   7.7052   7.7052   9.7652   9.7652   9.8562   9.8562
    21.3123  21.3123  23.6863  23.6863

          k =-0.5045-0.5045 0.3454 (  4868 PWs)   bands (ev):

    -8.7635  -8.7635  -7.3311  -7.3311   2.7437   2.7437   5.3523   5.3523
     6.9098   6.9098   7.4640   7.4640   9.9859   9.9859  10.3300  10.3300
    21.7291  21.7291  24.3777  24.3777

          k =-0.5045-0.5045 0.5180 (  4892 PWs)   bands (ev):

    -8.2764  -8.2764  -6.9581  -6.9581   1.6013   1.6013   4.1254   4.1254
     7.0875   7.0875   7.4684   7.4684  10.2536  10.2536  10.4870  10.4870
    21.1485  21.1485  24.1154  24.1154

          k =-0.5045-0.5045 0.6907 (  4892 PWs)   bands (ev):

    -7.9055  -7.9055  -6.6839  -6.6839   0.8059   0.8059   3.3263   3.3263
     7.3214   7.3214   7.5576   7.5576  10.4394  10.4394  10.4799  10.4799
    20.6002  20.6002  24.0412  24.0412

     the Fermi energy is    17.1955 ev

!    total energy              =    -190.01953643 Ry
     estimated scf accuracy    <          6.6E-11 Ry
     smearing contrib. (-TS)   =       0.00000000 Ry
     internal energy E=F+TS    =    -190.01953643 Ry

     The total energy is F=E-TS. E is the sum of the following terms:
     one-electron contribution =      -6.04866353 Ry
     hartree contribution      =      30.01918971 Ry
     xc contribution           =     -43.68394655 Ry
     ewald contribution        =    -132.33098955 Ry
     one-center paw contrib.   =     -37.97512650 Ry

     convergence has been achieved in   4 iterations

     Forces acting on atoms (cartesian axes, Ry/au):

     atom    1 type  1   force =     0.00000000    0.00000000    0.00000000
     atom    2 type  1   force =     0.00000000    0.00000000    0.00000000
     atom    3 type  2   force =    -0.00005208   -0.00005208   -0.00000000
     atom    4 type  2   force =     0.00005208    0.00005208    0.00000000
     atom    5 type  2   force =     0.00005208   -0.00005208    0.00000000
     atom    6 type  2   force =    -0.00005208    0.00005208    0.00000000

     Total force =     0.000147     Total SCF correction =     0.000004


     Computing stress (Cartesian axis) and pressure

          total   stress  (Ry/bohr**3)                   (kbar)     P=      491.88
   0.00334333   0.00000000   0.00000000          491.82        0.00        0.00
   0.00000000   0.00334333   0.00000000            0.00      491.82        0.00
   0.00000000   0.00000000   0.00334461            0.00        0.00      492.01

     Energy error            =      2.4E-07 Ry
     Gradient error          =      5.2E-05 Ry/Bohr
     Cell gradient error     =      2.0E+00 kbar

     number of scf cycles    =   4
     number of bfgs steps    =   3

     enthalpy           old  =    -189.0690156724 Ry
     enthalpy           new  =    -189.0690154374 Ry

     CASE: enthalpy          _new > enthalpy          _old

     new trust radius        =       0.0004981151 bohr
     new conv_thr            =            1.0E-10 Ry

     new unit-cell volume =    285.45598 a.u.^3 (    42.30021 Ang^3 )
     density =      4.71724 g/cm^3

CELL_PARAMETERS (angstrom)
   4.023746767   0.000000000   0.000000000
   0.000000000   4.023746767   0.000000000
   0.000000000   0.000000000   2.612650218

ATOMIC_POSITIONS (angstrom)
Si               0.0000000000        0.0000000000       -0.0000000000
Si               2.0118733834        2.0118733834        1.3063251087
O                1.2175565062        1.2175565062       -0.0000000000
O                2.8061902605        2.8061902605        0.0000000000
O                0.7943168771        3.2294298896        1.3063251087
O                3.2294298896        0.7943168771        1.3063251087



     Writing config-only to output data dir ./SiO2.save/ :
     XML data file
     NEW-OLD atomic charge density approx. for the potential
     New effective cutoffs (rho, wfc):  406.96  101.78

     Check: negative core charge=   -0.000001

     total cpu time spent up to now is      195.3 secs

     Self-consistent Calculation

     iteration #  1     ecut=   100.00 Ry     beta= 0.70
     Davidson diagonalization with overlap
     ethr =  1.00E-06,  avg # of iterations =  2.0

     Threshold (ethr) on eigenvalues was too large:
     Diagonalizing with lowered threshold

     Davidson diagonalization with overlap
     ethr =  1.76E-10,  avg # of iterations =  3.9

     total cpu time spent up to now is      208.7 secs

     total energy              =    -190.01985635 Ry
     estimated scf accuracy    <       0.00000007 Ry

     iteration #  2     ecut=   100.00 Ry     beta= 0.70
     Davidson diagonalization with overlap
     ethr =  2.28E-10,  avg # of iterations =  2.5

     total cpu time spent up to now is      214.6 secs

     total energy              =    -190.01985636 Ry
     estimated scf accuracy    <       0.00000002 Ry

     iteration #  3     ecut=   100.00 Ry     beta= 0.70
     Davidson diagonalization with overlap
     ethr =  5.79E-11,  avg # of iterations =  2.0

     total cpu time spent up to now is      219.5 secs

     total energy              =    -190.01985636 Ry
     estimated scf accuracy    <          4.5E-10 Ry

     iteration #  4     ecut=   100.00 Ry     beta= 0.70
     Davidson diagonalization with overlap
     ethr =  1.41E-12,  avg # of iterations =  2.3

     total cpu time spent up to now is      225.3 secs

     End of self-consistent calculation

          k = 0.0000 0.0000 0.0000 (  4887 PWs)   bands (ev):

   -11.3500  -7.2336  -7.2336  -6.7046   0.5588   5.0797   5.2789   5.2789
     6.2936   6.7685   8.7784   8.7784   9.7590  11.3140  11.3140  12.2666
    19.1143  19.5197  21.2893  21.2893

          k = 0.0000 0.0000 0.1727 (  4875 PWs)   bands (ev):

   -11.1711  -7.1413  -7.1413  -6.7008   0.6301   5.2745   5.4213   5.4213
     5.8270   6.5155   8.1969   8.1969   9.1914  11.1684  11.1684  12.0726
    20.0778  20.0931  22.0593  22.0593

          k = 0.0000 0.0000 0.3453 (  4884 PWs)   bands (ev):

   -10.6500  -6.8942  -6.8942  -6.7710   0.8111   5.0230   5.6675   5.8261
     5.8261   5.8472   6.9228   6.9228   8.0508  10.7225  10.7225  11.4748
    20.9900  22.3181  22.9289  23.8332

          k = 0.0000 0.0000 0.5180 (  4824 PWs)   bands (ev):

    -9.8385  -7.1149  -6.5853  -6.5853   1.1102   4.2932   4.7318   5.6315
     5.6315   6.4669   6.4669   6.7586   6.9615  10.0427  10.0427  10.4871
    21.4641  23.9501  23.9646  25.6024

          k = 0.0000 0.0000 0.6906 (  4848 PWs)   bands (ev):

    -8.8431  -7.8518  -6.3637  -6.3637   1.7438   2.8559   4.8808   4.8808
     5.1382   5.9668   7.0509   7.0509   7.9319   9.2376   9.3913   9.3913
    22.1778  23.2847  25.2569  26.2472

          k = 0.0000 0.2522 0.0000 (  4874 PWs)   bands (ev):

   -10.9801  -8.4374  -7.0354  -6.3159   1.0253   3.9194   5.5180   6.3139
     6.5690   7.6566   8.2556   8.9543   9.7097  10.0507  11.2112  11.7698
    19.7738  20.2874  21.5664  21.5713

          k = 0.0000 0.2522 0.1727 (  4856 PWs)   bands (ev):

   -10.8065  -8.3177  -6.9566  -6.3110   1.1466   4.0272   5.2088   5.9870
     6.9384   6.9412   8.1702   8.4517   8.9100  10.3300  11.0521  11.7017
    20.6927  20.7245  22.2380  22.2952

          k = 0.0000 0.2522 0.3453 (  4856 PWs)   bands (ev):

   -10.3030  -7.9988  -6.7555  -6.3509   1.4446   4.2168   4.2491   5.5943
     6.0234   7.3243   7.3682   7.5913   8.0330  10.3697  10.5852  11.3719
    21.4433  22.7283  23.4410  23.8749

          k = 0.0000 0.2522 0.5180 (  4874 PWs)   bands (ev):

    -9.5284  -7.6550  -6.5408  -6.5221   1.7094   3.6040   3.7707   5.0160
     5.4564   5.9811   7.6075   7.6908   7.8678   9.9369  10.1154  10.7218
    21.7849  23.5522  23.6600  24.9115

          k = 0.0000 0.2522 0.6906 (  4848 PWs)   bands (ev):

    -8.6101  -7.8160  -6.5762  -6.4678   1.9669   2.5856   4.0458   4.5741
     4.9988   5.2541   7.5969   7.9330   8.6095   9.5280   9.5846   9.9662
    22.1455  22.8101  24.1248  24.6085

          k = 0.0000-0.5045 0.0000 (  4880 PWs)   bands (ev):

    -9.9318  -9.9318  -6.5757  -6.5757   2.2280   2.2280   7.3153   7.3153
     7.3545   7.3545   7.8450   7.8450   9.3693   9.3693  11.1392  11.1392
    21.0492  21.0492  21.9698  21.9698

          k = 0.0000-0.5045 0.1727 (  4870 PWs)   bands (ev):

    -9.7760  -9.7760  -6.5353  -6.5353   2.3709   2.3709   5.9891   5.9891
     7.5414   7.5414   8.2579   8.2579   9.1325   9.1325  11.0302  11.0302
    21.7320  21.7320  22.6424  22.6424

          k = 0.0000-0.5045 0.3453 (  4858 PWs)   bands (ev):

    -9.3326  -9.3326  -6.4622  -6.4622   2.7584   2.7584   4.4157   4.4157
     6.7413   6.7413   8.4680   8.4680   9.0988   9.0988  10.7513  10.7513
    22.7262  22.7262  23.8531  23.8531

          k = 0.0000-0.5045 0.5180 (  4878 PWs)   bands (ev):

    -8.6892  -8.6892  -6.4868  -6.4868   3.1218   3.1218   3.2230   3.2230
     5.7232   5.7232   8.2223   8.2223   9.4091   9.4091  10.4713  10.4713
    22.4998  22.4998  23.4724  23.4724

          k = 0.0000-0.5045 0.6906 (  4862 PWs)   bands (ev):

    -8.0771  -8.0771  -6.6820  -6.6820   2.4495   2.4495   3.4103   3.4103
     5.2715   5.2715   7.8082   7.8082   9.7220   9.7220  10.2920  10.2920
    22.0075  22.0075  23.4188  23.4188

          k = 0.2522 0.2522 0.0000 (  4881 PWs)   bands (ev):

   -10.6301  -8.5912  -7.4945  -6.4507   1.6442   4.1073   5.3407   6.8175
     6.8332   7.8927   8.2704   8.6918   9.5448   9.6049  10.6501  11.3569
    19.9753  20.8839  21.6760  22.3705

          k = 0.2522 0.2522 0.1727 (  4862 PWs)   bands (ev):

   -10.4622  -8.4723  -7.3938  -6.4265   1.7493   3.8656   5.4382   6.3395
     6.8367   7.1878   8.1919   8.4327   8.7146  10.0973  10.6100  11.4177
    20.6663  21.5207  22.1714  23.0556

          k = 0.2522 0.2522 0.3453 (  4856 PWs)   bands (ev):

    -9.9780  -8.1571  -7.1223  -6.4059   1.9452   3.1846   5.2028   5.4776
     6.3797   6.5237   7.3486   7.9070   8.7123  10.1983  10.4521  11.2976
    21.4544  22.7392  23.3692  24.2955

          k = 0.2522 0.2522 0.5180 (  4860 PWs)   bands (ev):

    -9.2451  -7.8036  -6.7793  -6.5051   1.6927   2.7420   4.2387   4.6604
     5.3147   6.7155   6.8738   8.4269   8.6648  10.0098  10.1167  10.8648
    21.4428  22.4315  24.4199  24.7938

          k = 0.2522 0.2522 0.6906 (  4864 PWs)   bands (ev):

    -8.4157  -7.7959  -6.6694  -6.5300   1.2517   2.4736   3.9486   4.1398
     4.4429   6.6739   7.1570   8.7656   9.1505   9.6880   9.7073  10.2835
    21.3689  21.9888  24.3650  24.4026

          k = 0.2522-0.5045 0.0000 (  4850 PWs)   bands (ev):

    -9.6687  -9.6687  -7.1019  -7.1019   2.9668   2.9668   6.7641   6.7641
     7.5353   7.5353   8.3289   8.3289   9.0620   9.0620  10.6212  10.6212
    20.8519  20.8519  22.5250  22.5250

          k = 0.2522-0.5045 0.1727 (  4870 PWs)   bands (ev):

    -9.5199  -9.5199  -7.0283  -7.0283   2.9506   2.9506   6.1475   6.1475
     7.2615   7.2615   8.2927   8.2927   9.0561   9.0561  10.7227  10.7227
    21.4463  21.4463  23.0944  23.0944

          k = 0.2522-0.5045 0.3453 (  4858 PWs)   bands (ev):

    -9.1012  -9.1012  -6.8504  -6.8504   2.6834   2.6834   5.2210   5.2210
     6.2389   6.2389   8.3564   8.3564   9.2687   9.2687  10.7436  10.7436
    22.0133  22.0133  24.2951  24.2951

          k = 0.2522-0.5045 0.5180 (  4862 PWs)   bands (ev):

    -8.5126  -8.5126  -6.6944  -6.6944   1.9555   1.9555   4.4424   4.4424
     5.6208   5.6208   8.4067   8.4067   9.5594   9.5594  10.5979  10.5979
    21.5395  21.5395  24.2713  24.2713

          k = 0.2522-0.5045 0.6906 (  4888 PWs)   bands (ev):

    -7.9965  -7.9965  -6.6820  -6.6820   1.3647   1.3647   3.7349   3.7349
     5.7351   5.7351   8.3407   8.3407   9.7831   9.7831  10.4548  10.4548
    21.0987  21.0987  23.7843  23.7843

          k =-0.5045-0.5045 0.0000 (  4844 PWs)   bands (ev):

    -9.2727  -9.2727  -7.7344  -7.7344   3.9292   3.9292   6.0017   6.0017
     7.9053   7.9053   8.6069   8.6069   9.1668   9.1668   9.6772   9.6772
    20.7749  20.7749  23.1431  23.1431

          k =-0.5045-0.5045 0.1727 (  4864 PWs)   bands (ev):

    -9.1373  -9.1373  -7.6266  -7.6266   3.6295   3.6295   5.9810   5.9810
     7.5868   7.5868   7.7002   7.7002   9.7610   9.7610   9.8508   9.8508
    21.3015  21.3015  23.6761  23.6761

          k =-0.5045-0.5045 0.3453 (  4868 PWs)   bands (ev):

    -8.7662  -8.7662  -7.3346  -7.3346   2.7394   2.7394   5.3486   5.3486
     6.9053   6.9053   7.4597   7.4597   9.9815   9.9815  10.3250  10.3250
    21.7176  21.7176  24.3688  24.3688

          k =-0.5045-0.5045 0.5180 (  4892 PWs)   bands (ev):

    -8.2794  -8.2794  -6.9620  -6.9620   1.5975   1.5975   4.1222   4.1222
     7.0830   7.0830   7.4644   7.4644  10.2489  10.2489  10.4822  10.4822
    21.1375  21.1375  24.1081  24.1081

          k =-0.5045-0.5045 0.6906 (  4892 PWs)   bands (ev):

    -7.9089  -7.9089  -6.6881  -6.6881   0.8025   0.8025   3.3235   3.3235
     7.3168   7.3168   7.5537   7.5537  10.4345  10.4345  10.4753  10.4753
    20.5897  20.5897  24.0340  24.0340

     the Fermi energy is    17.1880 ev

!    total energy              =    -190.01985636 Ry
     estimated scf accuracy    <          4.1E-11 Ry
     smearing contrib. (-TS)   =       0.00000000 Ry
     internal energy E=F+TS    =    -190.01985636 Ry

     The total energy is F=E-TS. E is the sum of the following terms:
     one-electron contribution =      -6.06875046 Ry
     hartree contribution      =      30.02339477 Ry
     xc contribution           =     -43.68206845 Ry
     ewald contribution        =    -132.31724879 Ry
     one-center paw contrib.   =     -37.97518343 Ry

     convergence has been achieved in   4 iterations

     Forces acting on atoms (cartesian axes, Ry/au):

     atom    1 type  1   force =     0.00000000    0.00000000   -0.00000000
     atom    2 type  1   force =     0.00000000    0.00000000    0.00000000
     atom    3 type  2   force =     0.00005799    0.00005799   -0.00000000
     atom    4 type  2   force =    -0.00005799   -0.00005799    0.00000000
     atom    5 type  2   force =    -0.00005799    0.00005799   -0.00000000
     atom    6 type  2   force =     0.00005799   -0.00005799    0.00000000

     Total force =     0.000164     Total SCF correction =     0.000001


     Computing stress (Cartesian axis) and pressure

          total   stress  (Ry/bohr**3)                   (kbar)     P=      490.20
   0.00333374   0.00000000   0.00000000          490.41        0.00        0.00
   0.00000000   0.00333374   0.00000000            0.00      490.41        0.00
   0.00000000   0.00000000   0.00332953            0.00        0.00      489.79

     Energy error            =      4.2E-07 Ry
     Gradient error          =      5.8E-05 Ry/Bohr
     Cell gradient error     =      4.1E-01 kbar

     bfgs converged in   5 scf cycles and   3 bfgs steps
     (criteria: energy <  1.0E-04 Ry, force <  1.0E-03 Ry/Bohr, cell <  5.0E-01 kbar)

     End of BFGS Geometry Optimization

     Final enthalpy           =    -189.0690160928 Ry

     File ./SiO2.bfgs deleted, as requested
Begin final coordinates
     new unit-cell volume =    285.45598 a.u.^3 (    42.30021 Ang^3 )
     density =      4.71724 g/cm^3

CELL_PARAMETERS (angstrom)
   4.023746767   0.000000000   0.000000000
   0.000000000   4.023746767   0.000000000
   0.000000000   0.000000000   2.612650218

ATOMIC_POSITIONS (angstrom)
Si               0.0000000000        0.0000000000       -0.0000000000
Si               2.0118733834        2.0118733834        1.3063251087
O                1.2175565062        1.2175565062       -0.0000000000
O                2.8061902605        2.8061902605        0.0000000000
O                0.7943168771        3.2294298896        1.3063251087
O                3.2294298896        0.7943168771        1.3063251087
End final coordinates



     Writing config-only to output data dir ./SiO2.save/ :
     XML data file

     Final scf calculation at the relaxed structure.
     The G-vectors are recalculated for the final unit cell
     Results may differ from those at the preceding step.

     G-vector sticks info
     --------------------
     sticks:   dense  smooth     PW     G-vecs:    dense   smooth      PW
     Sum        1853    1853    545                38539    38539    6121

     Using Slab Decomposition



     bravais-lattice index     =            0
     lattice parameter (alat)  =       7.6717  a.u.
     unit-cell volume          =     285.4560 (a.u.)^3
     number of atoms/cell      =            6
     number of atomic types    =            2
     number of electrons       =        32.00
     number of Kohn-Sham states=           20
     kinetic-energy cutoff     =     100.0000  Ry
     charge density cutoff     =     400.0000  Ry
     scf convergence threshold =      1.0E-10
     mixing beta               =       0.7000
     number of iterations used =            8  plain     mixing
     press convergence thresh. =      5.0E-01
     Exchange-correlation= SLA  PW   PBX  PBC
                           (   1   4   3   4   0   0   0)

     celldm(1)=   7.671721  celldm(2)=   0.000000  celldm(3)=   0.000000
     celldm(4)=   0.000000  celldm(5)=   0.000000  celldm(6)=   0.000000

     crystal axes: (cart. coord. in units of alat)
               a(1) = (   0.991144   0.000000   0.000000 )  
               a(2) = (   0.000000   0.991144   0.000000 )  
               a(3) = (   0.000000   0.000000   0.643557 )  

     reciprocal axes: (cart. coord. in units 2 pi/alat)
               b(1) = (  1.008935  0.000000  0.000000 )  
               b(2) = (  0.000000  1.008935  0.000000 )  
               b(3) = (  0.000000  0.000000  1.553863 )  


     PseudoPot. # 1 for Si read from file:
     /home/yluo/ASE/05b_ev/ase/src/Si.pbe-n-rrkjus_psl.1.0.0.UPF
     MD5 check sum: 0b0bb1205258b0d07b9f9672cf965d36
     Pseudo is Ultrasoft + core correction, Zval =  4.0
     Generated using "atomic" code by A. Dal Corso  v.5.1
     Using radial grid of 1141 points,  6 beta functions with: 
                l(1) =   0
                l(2) =   0
                l(3) =   1
                l(4) =   1
                l(5) =   2
                l(6) =   2
     Q(r) pseudized with 0 coefficients 


     PseudoPot. # 2 for O  read from file:
     /home/yluo/ASE/05b_ev/ase/src/O.pbe-n-kjpaw_psl.0.1.UPF
     MD5 check sum: 0234752ac141de4415c5fc33072bef88
     Pseudo is Projector augmented-wave + core cor, Zval =  6.0
     Generated using "atomic" code by A. Dal Corso  v.5.0.99 svn rev. 10869
     Shape of augmentation charge: BESSEL
     Using radial grid of 1095 points,  4 beta functions with: 
                l(1) =   0
                l(2) =   0
                l(3) =   1
                l(4) =   1
     Q(r) pseudized with 0 coefficients 


     atomic species   valence    mass     pseudopotential
     Si                4.00    28.08500     Si( 1.00)
     O                 6.00    15.99900     O ( 1.00)

     16 Sym. Ops., with inversion, found ( 8 have fractional translation)



   Cartesian axes

     site n.     atom                  positions (alat units)
         1        Si     tau(   1) = (   0.0000000   0.0000000  -0.0000000  )
         2        Si     tau(   2) = (   0.4955719   0.4955719   0.3217787  )
         3        O      tau(   3) = (   0.2999129   0.2999129  -0.0000000  )
         4        O      tau(   4) = (   0.6912309   0.6912309   0.0000000  )
         5        O      tau(   5) = (   0.1956590   0.7954849   0.3217787  )
         6        O      tau(   6) = (   0.7954849   0.1956590   0.3217787  )

     number of k points=    30  Marzari-Vanderbilt smearing, width (Ry)=  0.0050
                       cart. coord. in units 2pi/alat
        k(    1) = (   0.0000000   0.0000000   0.0000000), wk =   0.0138889
        k(    2) = (   0.0000000   0.0000000   0.1726514), wk =   0.0277778
        k(    3) = (   0.0000000   0.0000000   0.3453028), wk =   0.0277778
        k(    4) = (   0.0000000   0.0000000   0.5179543), wk =   0.0277778
        k(    5) = (   0.0000000   0.0000000   0.6906057), wk =   0.0277778
        k(    6) = (   0.0000000   0.2522338   0.0000000), wk =   0.0555556
        k(    7) = (   0.0000000   0.2522338   0.1726514), wk =   0.1111111
        k(    8) = (   0.0000000   0.2522338   0.3453028), wk =   0.1111111
        k(    9) = (   0.0000000   0.2522338   0.5179543), wk =   0.1111111
        k(   10) = (   0.0000000   0.2522338   0.6906057), wk =   0.1111111
        k(   11) = (   0.0000000  -0.5044676   0.0000000), wk =   0.0277778
        k(   12) = (   0.0000000  -0.5044676   0.1726514), wk =   0.0555556
        k(   13) = (   0.0000000  -0.5044676   0.3453028), wk =   0.0555556
        k(   14) = (   0.0000000  -0.5044676   0.5179543), wk =   0.0555556
        k(   15) = (   0.0000000  -0.5044676   0.6906057), wk =   0.0555556
        k(   16) = (   0.2522338   0.2522338   0.0000000), wk =   0.0555556
        k(   17) = (   0.2522338   0.2522338   0.1726514), wk =   0.1111111
        k(   18) = (   0.2522338   0.2522338   0.3453028), wk =   0.1111111
        k(   19) = (   0.2522338   0.2522338   0.5179543), wk =   0.1111111
        k(   20) = (   0.2522338   0.2522338   0.6906057), wk =   0.1111111
        k(   21) = (   0.2522338  -0.5044676   0.0000000), wk =   0.0555556
        k(   22) = (   0.2522338  -0.5044676   0.1726514), wk =   0.1111111
        k(   23) = (   0.2522338  -0.5044676   0.3453028), wk =   0.1111111
        k(   24) = (   0.2522338  -0.5044676   0.5179543), wk =   0.1111111
        k(   25) = (   0.2522338  -0.5044676   0.6906057), wk =   0.1111111
        k(   26) = (  -0.5044676  -0.5044676   0.0000000), wk =   0.0138889
        k(   27) = (  -0.5044676  -0.5044676   0.1726514), wk =   0.0277778
        k(   28) = (  -0.5044676  -0.5044676   0.3453028), wk =   0.0277778
        k(   29) = (  -0.5044676  -0.5044676   0.5179543), wk =   0.0277778
        k(   30) = (  -0.5044676  -0.5044676   0.6906057), wk =   0.0277778

     Dense  grid:    38539 G-vectors     FFT dimensions: (  50,  50,  32)

     Estimated max dynamical RAM per process >     198.51 MB

     Check: negative core charge=   -0.000002

     Initial potential from superposition of free atoms

     starting charge      31.9989, renormalised to      32.0000
     Starting wfcs are   24 randomized atomic wfcs
     Checking if some PAW data can be deallocated... 

     total cpu time spent up to now is      233.2 secs

     Self-consistent Calculation

     iteration #  1     ecut=   100.00 Ry     beta= 0.70
     Davidson diagonalization with overlap
     c_bands:  1 eigenvalues not converged
     c_bands:  1 eigenvalues not converged
     c_bands:  1 eigenvalues not converged
     c_bands:  2 eigenvalues not converged
     c_bands:  1 eigenvalues not converged
     c_bands:  1 eigenvalues not converged
     c_bands:  1 eigenvalues not converged
     c_bands:  2 eigenvalues not converged
     c_bands:  2 eigenvalues not converged
     c_bands:  2 eigenvalues not converged
     c_bands:  2 eigenvalues not converged
     c_bands:  2 eigenvalues not converged
     ethr =  1.00E-06,  avg # of iterations = 17.0

     total cpu time spent up to now is      254.7 secs

     total energy              =    -189.58719833 Ry
     estimated scf accuracy    <       1.08714401 Ry

     iteration #  2     ecut=   100.00 Ry     beta= 0.70
     Davidson diagonalization with overlap
     ethr =  3.40E-03,  avg # of iterations =  2.3

     total cpu time spent up to now is      263.8 secs

     total energy              =    -189.97427572 Ry
     estimated scf accuracy    <       0.35326770 Ry

     iteration #  3     ecut=   100.00 Ry     beta= 0.70
     Davidson diagonalization with overlap
     ethr =  1.10E-03,  avg # of iterations =  1.6

     total cpu time spent up to now is      268.6 secs

     total energy              =    -190.01281531 Ry
     estimated scf accuracy    <       0.01066558 Ry

     iteration #  4     ecut=   100.00 Ry     beta= 0.70
     Davidson diagonalization with overlap
     ethr =  3.33E-05,  avg # of iterations =  4.5

     total cpu time spent up to now is      277.2 secs

     total energy              =    -190.01966144 Ry
     estimated scf accuracy    <       0.00783739 Ry

     iteration #  5     ecut=   100.00 Ry     beta= 0.70
     Davidson diagonalization with overlap
     ethr =  2.45E-05,  avg # of iterations =  1.9

     total cpu time spent up to now is      282.1 secs

     total energy              =    -190.01961412 Ry
     estimated scf accuracy    <       0.00149609 Ry

     iteration #  6     ecut=   100.00 Ry     beta= 0.70
     Davidson diagonalization with overlap
     ethr =  4.68E-06,  avg # of iterations =  3.9

     total cpu time spent up to now is      288.4 secs

     total energy              =    -190.01981367 Ry
     estimated scf accuracy    <       0.00010045 Ry

     iteration #  7     ecut=   100.00 Ry     beta= 0.70
     Davidson diagonalization with overlap
     ethr =  3.14E-07,  avg # of iterations =  3.1

     total cpu time spent up to now is      295.0 secs

     total energy              =    -190.01984464 Ry
     estimated scf accuracy    <       0.00000051 Ry

     iteration #  8     ecut=   100.00 Ry     beta= 0.70
     Davidson diagonalization with overlap
     ethr =  1.60E-09,  avg # of iterations =  4.0

     total cpu time spent up to now is      302.4 secs

     total energy              =    -190.01984454 Ry
     estimated scf accuracy    <       0.00000091 Ry

     iteration #  9     ecut=   100.00 Ry     beta= 0.70
     Davidson diagonalization with overlap
     ethr =  1.60E-09,  avg # of iterations =  2.0

     total cpu time spent up to now is      308.5 secs

     total energy              =    -190.01984472 Ry
     estimated scf accuracy    <          1.2E-09 Ry

     iteration # 10     ecut=   100.00 Ry     beta= 0.70
     Davidson diagonalization with overlap
     ethr =  3.64E-12,  avg # of iterations =  5.7

     total cpu time spent up to now is      317.7 secs

     total energy              =    -190.01984473 Ry
     estimated scf accuracy    <          1.5E-09 Ry

     iteration # 11     ecut=   100.00 Ry     beta= 0.70
     Davidson diagonalization with overlap
     ethr =  3.64E-12,  avg # of iterations =  2.1

     total cpu time spent up to now is      323.7 secs

     End of self-consistent calculation

          k = 0.0000 0.0000 0.0000 (  4823 PWs)   bands (ev):

   -11.3500  -7.2335  -7.2335  -6.7046   0.5589   5.0797   5.2789   5.2789
     6.2936   6.7685   8.7784   8.7784   9.7590  11.3141  11.3141  12.2667
    19.1143  19.5197  21.2893  21.2893

          k = 0.0000 0.0000 0.1727 (  4787 PWs)   bands (ev):

   -11.1711  -7.1413  -7.1413  -6.7008   0.6302   5.2746   5.4213   5.4213
     5.8270   6.5155   8.1969   8.1969   9.1914  11.1685  11.1685  12.0727
    20.0778  20.0931  22.0593  22.0593

          k = 0.0000 0.0000 0.3453 (  4816 PWs)   bands (ev):

   -10.6500  -6.8942  -6.8942  -6.7710   0.8111   5.0230   5.6676   5.8261
     5.8261   5.8473   6.9228   6.9228   8.0508  10.7225  10.7225  11.4748
    20.9900  22.3181  22.9289  23.8332

          k = 0.0000 0.0000 0.5180 (  4812 PWs)   bands (ev):

    -9.8385  -7.1149  -6.5853  -6.5853   1.1102   4.2932   4.7318   5.6315
     5.6315   6.4669   6.4669   6.7586   6.9615  10.0427  10.0427  10.4872
    21.4641  23.9501  23.9646  25.6024

          k = 0.0000 0.0000 0.6906 (  4812 PWs)   bands (ev):

    -8.8431  -7.8518  -6.3637  -6.3637   1.7438   2.8559   4.8808   4.8808
     5.1382   5.9668   7.0509   7.0509   7.9319   9.2376   9.3914   9.3914
    22.1778  23.2847  25.2569  26.2474

          k = 0.0000 0.2522 0.0000 (  4820 PWs)   bands (ev):

   -10.9801  -8.4374  -7.0354  -6.3159   1.0253   3.9194   5.5180   6.3139
     6.5690   7.6566   8.2557   8.9544   9.7098  10.0507  11.2113  11.7699
    19.7738  20.2874  21.5664  21.5713

          k = 0.0000 0.2522 0.1727 (  4819 PWs)   bands (ev):

   -10.8065  -8.3177  -6.9566  -6.3110   1.1467   4.0272   5.2089   5.9870
     6.9384   6.9412   8.1702   8.4518   8.9100  10.3301  11.0522  11.7018
    20.6927  20.7245  22.2380  22.2952

          k = 0.0000 0.2522 0.3453 (  4824 PWs)   bands (ev):

   -10.3029  -7.9988  -6.7555  -6.3509   1.4446   4.2168   4.2491   5.5944
     6.0235   7.3243   7.3682   7.5913   8.0331  10.3697  10.5852  11.3720
    21.4433  22.7283  23.4410  23.8747

          k = 0.0000 0.2522 0.5180 (  4824 PWs)   bands (ev):

    -9.5284  -7.6550  -6.5408  -6.5221   1.7094   3.6040   3.7707   5.0160
     5.4565   5.9811   7.6075   7.6909   7.8679   9.9370  10.1154  10.7219
    21.7849  23.5522  23.6600  24.9116

          k = 0.0000 0.2522 0.6906 (  4820 PWs)   bands (ev):

    -8.6101  -7.8159  -6.5762  -6.4678   1.9669   2.5856   4.0459   4.5742
     4.9988   5.2541   7.5969   7.9331   8.6095   9.5281   9.5846   9.9663
    22.1455  22.8101  24.1248  24.6085

          k = 0.0000-0.5045 0.0000 (  4820 PWs)   bands (ev):

    -9.9318  -9.9318  -6.5757  -6.5757   2.2280   2.2280   7.3153   7.3153
     7.3546   7.3546   7.8450   7.8450   9.3693   9.3693  11.1392  11.1392
    21.0492  21.0492  21.9698  21.9698

          k = 0.0000-0.5045 0.1727 (  4828 PWs)   bands (ev):

    -9.7760  -9.7760  -6.5353  -6.5353   2.3709   2.3709   5.9891   5.9891
     7.5414   7.5414   8.2579   8.2579   9.1326   9.1326  11.0302  11.0302
    21.7320  21.7320  22.6424  22.6424

          k = 0.0000-0.5045 0.3453 (  4840 PWs)   bands (ev):

    -9.3326  -9.3326  -6.4622  -6.4622   2.7584   2.7584   4.4157   4.4157
     6.7413   6.7413   8.4680   8.4680   9.0988   9.0988  10.7513  10.7513
    22.7262  22.7262  23.8533  23.8533

          k = 0.0000-0.5045 0.5180 (  4828 PWs)   bands (ev):

    -8.6892  -8.6892  -6.4868  -6.4868   3.1218   3.1218   3.2230   3.2230
     5.7232   5.7232   8.2224   8.2224   9.4092   9.4092  10.4713  10.4713
    22.4998  22.4998  23.4725  23.4725

          k = 0.0000-0.5045 0.6906 (  4800 PWs)   bands (ev):

    -8.0771  -8.0771  -6.6820  -6.6820   2.4495   2.4495   3.4103   3.4103
     5.2715   5.2715   7.8082   7.8082   9.7220   9.7220  10.2920  10.2920
    22.0075  22.0075  23.4188  23.4188

          k = 0.2522 0.2522 0.0000 (  4819 PWs)   bands (ev):

   -10.6301  -8.5912  -7.4945  -6.4507   1.6442   4.1073   5.3407   6.8175
     6.8333   7.8927   8.2705   8.6919   9.5448   9.6049  10.6501  11.3570
    19.9753  20.8839  21.6760  22.3705

          k = 0.2522 0.2522 0.1727 (  4809 PWs)   bands (ev):

   -10.4622  -8.4722  -7.3938  -6.4265   1.7493   3.8657   5.4383   6.3395
     6.8367   7.1878   8.1919   8.4327   8.7147  10.0974  10.6100  11.4178
    20.6662  21.5207  22.1714  23.0556

          k = 0.2522 0.2522 0.3453 (  4816 PWs)   bands (ev):

    -9.9780  -8.1571  -7.1223  -6.4059   1.9453   3.1846   5.2028   5.4776
     6.3797   6.5238   7.3486   7.9070   8.7124  10.1984  10.4522  11.2977
    21.4544  22.7392  23.3692  24.2955

          k = 0.2522 0.2522 0.5180 (  4830 PWs)   bands (ev):

    -9.2451  -7.8036  -6.7793  -6.5051   1.6927   2.7420   4.2387   4.6604
     5.3147   6.7155   6.8738   8.4270   8.6648  10.0099  10.1167  10.8649
    21.4428  22.4315  24.4199  24.7945

          k = 0.2522 0.2522 0.6906 (  4843 PWs)   bands (ev):

    -8.4157  -7.7959  -6.6694  -6.5300   1.2517   2.4736   3.9486   4.1398
     4.4429   6.6739   7.1570   8.7657   9.1505   9.6881   9.7073  10.2835
    21.3689  21.9887  24.3650  24.4026

          k = 0.2522-0.5045 0.0000 (  4804 PWs)   bands (ev):

    -9.6687  -9.6687  -7.1019  -7.1019   2.9668   2.9668   6.7642   6.7642
     7.5353   7.5353   8.3289   8.3289   9.0620   9.0620  10.6213  10.6213
    20.8519  20.8519  22.5250  22.5250

          k = 0.2522-0.5045 0.1727 (  4820 PWs)   bands (ev):

    -9.5199  -9.5199  -7.0283  -7.0283   2.9506   2.9506   6.1475   6.1475
     7.2615   7.2615   8.2927   8.2927   9.0562   9.0562  10.7227  10.7227
    21.4463  21.4463  23.0944  23.0944

          k = 0.2522-0.5045 0.3453 (  4822 PWs)   bands (ev):

    -9.1012  -9.1012  -6.8504  -6.8504   2.6834   2.6834   5.2210   5.2210
     6.2389   6.2389   8.3564   8.3564   9.2688   9.2688  10.7437  10.7437
    22.0133  22.0133  24.2954  24.2954

          k = 0.2522-0.5045 0.5180 (  4822 PWs)   bands (ev):

    -8.5126  -8.5126  -6.6944  -6.6944   1.9556   1.9556   4.4425   4.4425
     5.6209   5.6209   8.4067   8.4067   9.5594   9.5594  10.5979  10.5979
    21.5395  21.5395  24.2713  24.2713

          k = 0.2522-0.5045 0.6906 (  4836 PWs)   bands (ev):

    -7.9965  -7.9965  -6.6820  -6.6820   1.3647   1.3647   3.7349   3.7349
     5.7351   5.7351   8.3408   8.3408   9.7831   9.7831  10.4549  10.4549
    21.0987  21.0987  23.7843  23.7843

          k =-0.5045-0.5045 0.0000 (  4780 PWs)   bands (ev):

    -9.2727  -9.2727  -7.7344  -7.7344   3.9292   3.9292   6.0018   6.0018
     7.9053   7.9053   8.6070   8.6070   9.1669   9.1669   9.6773   9.6773
    20.7749  20.7749  23.1431  23.1431

          k =-0.5045-0.5045 0.1727 (  4816 PWs)   bands (ev):

    -9.1373  -9.1373  -7.6266  -7.6266   3.6296   3.6296   5.9810   5.9810
     7.5868   7.5868   7.7003   7.7003   9.7610   9.7610   9.8508   9.8508
    21.3015  21.3015  23.6761  23.6761

          k =-0.5045-0.5045 0.3453 (  4836 PWs)   bands (ev):

    -8.7662  -8.7662  -7.3346  -7.3346   2.7394   2.7394   5.3486   5.3486
     6.9053   6.9053   7.4598   7.4598   9.9815   9.9815  10.3250  10.3250
    21.7176  21.7176  24.3688  24.3688

          k =-0.5045-0.5045 0.5180 (  4836 PWs)   bands (ev):

    -8.2794  -8.2794  -6.9620  -6.9620   1.5975   1.5975   4.1222   4.1222
     7.0831   7.0831   7.4645   7.4645  10.2489  10.2489  10.4822  10.4822
    21.1375  21.1375  24.1081  24.1081

          k =-0.5045-0.5045 0.6906 (  4852 PWs)   bands (ev):

    -7.9089  -7.9089  -6.6881  -6.6881   0.8025   0.8025   3.3235   3.3235
     7.3168   7.3168   7.5537   7.5537  10.4346  10.4346  10.4754  10.4754
    20.5897  20.5897  24.0343  24.0343

     the Fermi energy is    17.1882 ev

!    total energy              =    -190.01984473 Ry
     estimated scf accuracy    <          5.4E-11 Ry
     smearing contrib. (-TS)   =       0.00000000 Ry
     internal energy E=F+TS    =    -190.01984473 Ry

     The total energy is F=E-TS. E is the sum of the following terms:
     one-electron contribution =      -6.06868308 Ry
     hartree contribution      =      30.02330956 Ry
     xc contribution           =     -43.68203933 Ry
     ewald contribution        =    -132.31724879 Ry
     one-center paw contrib.   =     -37.97518308 Ry

     convergence has been achieved in  11 iterations

     Forces acting on atoms (cartesian axes, Ry/au):

     atom    1 type  1   force =     0.00000000    0.00000000    0.00000000
     atom    2 type  1   force =     0.00000000    0.00000000    0.00000000
     atom    3 type  2   force =     0.00005911    0.00005911    0.00000000
     atom    4 type  2   force =    -0.00005911   -0.00005911    0.00000000
     atom    5 type  2   force =    -0.00005911    0.00005911    0.00000000
     atom    6 type  2   force =     0.00005911   -0.00005911    0.00000000

     Total force =     0.000167     Total SCF correction =     0.000003


     Computing stress (Cartesian axis) and pressure

          total   stress  (Ry/bohr**3)                   (kbar)     P=      490.20
   0.00333383   0.00000000   0.00000000          490.42        0.00        0.00
   0.00000000   0.00333383   0.00000000            0.00      490.42        0.00
   0.00000000   0.00000000   0.00332921            0.00        0.00      489.74


     Writing all to output data dir ./SiO2.save/ :
     XML data file, charge density, pseudopotentials, collected wavefunctions

     init_run     :      4.98s CPU      5.17s WALL (       2 calls)
     electrons    :    281.54s CPU    285.89s WALL (       6 calls)
     update_pot   :      0.45s CPU      0.45s WALL (       4 calls)
     forces       :      7.60s CPU      7.85s WALL (       6 calls)
     stress       :     27.54s CPU     28.28s WALL (       6 calls)

     Called by init_run:
     wfcinit      :      3.72s CPU      3.75s WALL (       2 calls)
     potinit      :      0.29s CPU      0.30s WALL (       2 calls)
     hinit0       :      0.75s CPU      0.76s WALL (       2 calls)

     Called by electrons:
     c_bands      :    246.12s CPU    246.77s WALL (      42 calls)
     sum_band     :     26.79s CPU     29.03s WALL (      42 calls)
     v_of_rho     :      0.81s CPU      0.81s WALL (      46 calls)
     newd         :      4.79s CPU      6.52s WALL (      46 calls)
     PAW_pot      :      4.44s CPU      4.45s WALL (      50 calls)
     mix_rho      :      0.11s CPU      0.11s WALL (      42 calls)

     Called by c_bands:
     init_us_2    :      4.37s CPU      4.41s WALL (    3060 calls)
     cegterg      :    237.91s CPU    238.51s WALL (    1260 calls)

     Called by *egterg:
     cdiaghg      :      2.13s CPU      2.14s WALL (    5233 calls)
     h_psi        :    126.04s CPU    126.52s WALL (    5473 calls)
     s_psi        :     33.10s CPU     33.15s WALL (    5473 calls)
     g_psi        :      0.72s CPU      0.72s WALL (    4153 calls)

     Called by h_psi:
     h_psi:calbec :     34.43s CPU     34.50s WALL (    5473 calls)
     vloc_psi     :     57.55s CPU     57.88s WALL (    5473 calls)
                                        0.00s GPU  (    5473 calls)
     add_vuspsi   :     33.42s CPU     33.49s WALL (    5473 calls)

     General routines
     calbec       :     69.90s CPU     70.05s WALL (    9913 calls)
     fft          :      0.40s CPU      0.40s WALL (     662 calls)
     ffts         :      0.02s CPU      0.02s WALL (      42 calls)
     fftw         :     56.96s CPU     57.31s WALL (  181676 calls)

     Parallel routines

     PWSCF        :   5m24.06s CPU   5m29.92s WALL


   This run was terminated on:  16:20:18  17Jul2026            

=------------------------------------------------------------------------------=
   JOB DONE.
=------------------------------------------------------------------------------=
