
     Program PWSCF v.7.5 starts on  6Aug2026 at 14:18:38 

     This program is part of the open-source Quantum ESPRESSO suite
     for quantum simulation of materials; please cite
         "P. Giannozzi et al., J. Phys.:Condens. Matter 21 395502 (2009);
         "P. Giannozzi et al., J. Phys.:Condens. Matter 29 465901 (2017);
         "P. Giannozzi et al., J. Chem. Phys. 152 154105 (2020);
          URL http://www.quantum-espresso.org", 
     in publications or presentations arising from this work. More details at
     http://www.quantum-espresso.org/quote

     Parallel version (MPI), running on     1 processors

     MPI processes distributed on     1 nodes
     12479 MiB available memory on the printing compute node when the environment starts

     Reading input from espresso.pwi
Warning: card &CELL ignored
Warning: card &FCP ignored
Warning: card &RISM ignored

     Current dimensions of program PWSCF are:
     Max number of different atomic species (ntypx) = 10
     Max number of k-points (npk) =  40000
     Max angular momentum in pseudopotentials (lmaxx) =  4
     Found identity + (  0.0000 -0.5000 -0.5000) symmetry
     This is a supercell, fractional translations are disabled
     Message from routine setup:
     using ibrav=0 with symmetry is DISCOURAGED, use correct ibrav instead

     Subspace diagonalization in iterative solution of the eigenvalue problem:
     a serial algorithm will be used


     G-vector sticks info
     --------------------
     sticks:   dense  smooth     PW     G-vecs:    dense   smooth      PW
     Sum        3289    2185    601               140905    76813   11123

     Using Slab Decomposition



     bravais-lattice index     =            0
     lattice parameter (alat)  =      10.6908  a.u.
     unit-cell volume          =    1221.9002 (a.u.)^3
     number of atoms/cell      =            8
     number of atomic types    =            1
     number of electrons       =       112.00
     number of Kohn-Sham states=           67
     kinetic-energy cutoff     =      60.0000  Ry
     charge density cutoff     =     360.0000  Ry
     scf convergence threshold =      1.0E-08
     mixing beta               =       0.7000
     number of iterations used =            8  plain     mixing
     Exchange-correlation=  SLA  PW   PBX  PBC
                           (   1   4   3   4   0   0   0)

     celldm(1)=  10.690842  celldm(2)=   0.000000  celldm(3)=   0.000000
     celldm(4)=   0.000000  celldm(5)=   0.000000  celldm(6)=   0.000000

     crystal axes: (cart. coord. in units of alat)
               a(1) = (   1.000000   0.000000   0.000000 )  
               a(2) = (   0.000000   1.000000   0.000000 )  
               a(3) = (   0.000000   0.000000   1.000000 )  

     reciprocal axes: (cart. coord. in units 2 pi/alat)
               b(1) = (  1.000000  0.000000  0.000000 )  
               b(2) = (  0.000000  1.000000  0.000000 )  
               b(3) = (  0.000000  0.000000  1.000000 )  


     PseudoPot. # 1 for Ge read from file:
     /home/yluo/CompMatPhys/10_bonding/ge_pbe_v1.4.uspp.F.UPF
     MD5 check sum: 9c9eaa91e581c3f09632fb3098b2c6b2
     Pseudo is Ultrasoft + core correction, Zval = 14.0
     Generated by new atomic code, or converted to UPF format
     Using radial grid of  873 points,  6 beta functions with: 
                l(1) =   0
                l(2) =   0
                l(3) =   1
                l(4) =   1
                l(5) =   2
                l(6) =   2
     Q(r) pseudized with  8 coefficients,  rinner =    1.400   1.400   1.400
                                                       1.400   1.400

     atomic species   valence    mass     pseudopotential
     Ge               14.00    72.63000     Ge( 1.00)

     24 Sym. Ops. (no inversion) found



   Cartesian axes

     site n.     atom                  positions (alat units)
         1        Ge     tau(   1) = (   0.0000000   0.0000000   0.0000000  )
         2        Ge     tau(   2) = (   0.0000000   0.5000000   0.5000000  )
         3        Ge     tau(   3) = (   0.5000000   0.0000000   0.5000000  )
         4        Ge     tau(   4) = (   0.5000000   0.5000000   0.0000000  )
         5        Ge     tau(   5) = (   0.7500000   0.7500000   0.2500000  )
         6        Ge     tau(   6) = (   0.7500000   0.2500000   0.7500000  )
         7        Ge     tau(   7) = (   0.2500000   0.7500000   0.7500000  )
         8        Ge     tau(   8) = (   0.2500000   0.2500000   0.2500000  )

     number of k points=    20  Marzari-Vanderbilt smearing, width (Ry)=  0.0050
                       cart. coord. in units 2pi/alat
        k(    1) = (   0.0000000   0.0000000   0.0000000), wk =   0.0058309
        k(    2) = (   0.0000000   0.0000000   0.1428571), wk =   0.0349854
        k(    3) = (   0.0000000   0.0000000   0.2857143), wk =   0.0349854
        k(    4) = (   0.0000000   0.0000000   0.4285714), wk =   0.0349854
        k(    5) = (   0.0000000   0.1428571   0.1428571), wk =   0.0699708
        k(    6) = (   0.0000000   0.1428571   0.2857143), wk =   0.1399417
        k(    7) = (   0.0000000   0.1428571   0.4285714), wk =   0.1399417
        k(    8) = (   0.0000000   0.2857143   0.2857143), wk =   0.0699708
        k(    9) = (   0.0000000   0.2857143   0.4285714), wk =   0.1399417
        k(   10) = (   0.0000000   0.4285714   0.4285714), wk =   0.0699708
        k(   11) = (   0.1428571   0.1428571   0.1428571), wk =   0.0466472
        k(   12) = (   0.1428571   0.1428571   0.2857143), wk =   0.1399417
        k(   13) = (   0.1428571   0.1428571   0.4285714), wk =   0.1399417
        k(   14) = (   0.1428571   0.2857143   0.2857143), wk =   0.1399417
        k(   15) = (   0.1428571   0.2857143   0.4285714), wk =   0.2798834
        k(   16) = (   0.1428571   0.4285714   0.4285714), wk =   0.1399417
        k(   17) = (   0.2857143   0.2857143   0.2857143), wk =   0.0466472
        k(   18) = (   0.2857143   0.2857143   0.4285714), wk =   0.1399417
        k(   19) = (   0.2857143   0.4285714   0.4285714), wk =   0.1399417
        k(   20) = (   0.4285714   0.4285714   0.4285714), wk =   0.0466472

     Dense  grid:   140905 G-vectors     FFT dimensions: (  72,  72,  72)

     Smooth grid:    76813 G-vectors     FFT dimensions: (  54,  54,  54)

     Estimated max dynamical RAM per process >     760.53 MB

     Initial potential from superposition of free atoms

     starting charge     111.9930, renormalised to     112.0000
     Starting wfcs are   72 randomized atomic wfcs

     total cpu time spent up to now is       29.3 secs

     Self-consistent Calculation

     iteration #  1     ecut=    60.00 Ry     beta= 0.70
     Davidson diagonalization with overlap
     ethr =  1.00E-02,  avg # of iterations =  3.6

     Threshold (ethr) on eigenvalues was too large:
     Diagonalizing with lowered threshold

     Davidson diagonalization with overlap
     ethr =  1.14E-04,  avg # of iterations =  5.2

     total cpu time spent up to now is      203.5 secs

     total energy              =   -1709.19675832 Ry
     estimated scf accuracy    <       0.13606819 Ry

     iteration #  2     ecut=    60.00 Ry     beta= 0.70
     Davidson diagonalization with overlap
     ethr =  1.21E-04,  avg # of iterations =  1.0

     total cpu time spent up to now is      266.1 secs

     total energy              =   -1709.20053188 Ry
     estimated scf accuracy    <       0.00714112 Ry

     iteration #  3     ecut=    60.00 Ry     beta= 0.70
     Davidson diagonalization with overlap
     ethr =  6.38E-06,  avg # of iterations =  4.7

     total cpu time spent up to now is      349.7 secs

     total energy              =   -1709.20088963 Ry
     estimated scf accuracy    <       0.00009465 Ry

     iteration #  4     ecut=    60.00 Ry     beta= 0.70
     Davidson diagonalization with overlap
     ethr =  8.45E-08,  avg # of iterations =  2.2

     total cpu time spent up to now is      454.6 secs

     total energy              =   -1709.20092358 Ry
     estimated scf accuracy    <       0.00000994 Ry

     iteration #  5     ecut=    60.00 Ry     beta= 0.70
     Davidson diagonalization with overlap
     ethr =  8.88E-09,  avg # of iterations =  2.0

     total cpu time spent up to now is      557.9 secs

     total energy              =   -1709.20092583 Ry
     estimated scf accuracy    <       0.00000025 Ry

     iteration #  6     ecut=    60.00 Ry     beta= 0.70
     Davidson diagonalization with overlap
     ethr =  2.26E-10,  avg # of iterations =  3.5

     total cpu time spent up to now is      676.5 secs

     total energy              =   -1709.20092601 Ry
     estimated scf accuracy    <       0.00000002 Ry

     iteration #  7     ecut=    60.00 Ry     beta= 0.70
     Davidson diagonalization with overlap
     ethr =  1.81E-11,  avg # of iterations =  2.0

     total cpu time spent up to now is      779.9 secs

     End of self-consistent calculation

          k = 0.0000 0.0000 0.0000 (  9627 PWs)   bands (ev):

   -16.3698 -16.3698 -16.3698 -16.3697 -16.3697 -16.3697 -16.3358 -16.3358
   -16.3358 -16.3003 -16.3003 -16.2845 -16.2845 -16.2845 -16.2845 -16.2845
   -16.2845 -16.1854 -16.1854 -16.1854 -16.1854 -16.1854 -16.1854 -16.1278
   -16.1278 -16.1278 -16.1278 -16.1278 -16.1278 -16.0890 -16.0890 -16.0890
   -16.0759 -16.0759 -16.0343 -16.0343 -16.0343 -16.0342 -16.0342 -16.0342
    -4.3050  -0.4171  -0.4171  -0.4171  -0.4171  -0.4171  -0.4170   5.3951
     5.3951   5.3951   5.3951   5.3951   5.3951   8.4685   8.4685   8.4685
     8.5018   9.2220   9.2220   9.2220   9.2220   9.2220   9.2220  11.0212
    11.0212  11.0212  14.8964

          k = 0.0000 0.0000 0.1429 (  9599 PWs)   bands (ev):

   -16.3729 -16.3729 -16.3729 -16.3729 -16.3683 -16.3683 -16.3397 -16.3378
   -16.3378 -16.3082 -16.2973 -16.2912 -16.2774 -16.2774 -16.2774 -16.2774
   -16.2563 -16.2105 -16.1859 -16.1859 -16.1859 -16.1858 -16.1606 -16.1561
   -16.1340 -16.1340 -16.1340 -16.1339 -16.1046 -16.1028 -16.0860 -16.0860
   -16.0785 -16.0666 -16.0368 -16.0368 -16.0316 -16.0316 -16.0316 -16.0315
    -4.2217  -1.4053  -0.3995  -0.3994  -0.3994  -0.3994   0.6792   5.2026
     5.2026   5.2026   5.2026   5.4822   5.4822   7.1075   8.1067   8.1067
     9.0441   9.6143   9.6500   9.6500   9.6500   9.6500   9.8281  10.7656
    11.4883  11.4883  15.3405

          k = 0.0000 0.0000 0.2857 (  9570 PWs)   bands (ev):

   -16.3790 -16.3789 -16.3789 -16.3789 -16.3641 -16.3641 -16.3444 -16.3431
   -16.3431 -16.3265 -16.2887 -16.2708 -16.2608 -16.2608 -16.2608 -16.2608
   -16.2346 -16.2251 -16.1878 -16.1878 -16.1878 -16.1878 -16.1861 -16.1479
   -16.1479 -16.1479 -16.1479 -16.1372 -16.1304 -16.0865 -16.0823 -16.0778
   -16.0778 -16.0598 -16.0439 -16.0439 -16.0263 -16.0263 -16.0263 -16.0263
    -3.9725  -2.2675  -0.3586  -0.3585  -0.3585  -0.3585   1.8625   4.8429
     4.8429   4.8429   4.8429   5.7412   5.7412   5.7443   7.4158   7.4158
     9.0761  10.2052  10.2338  10.7215  10.7215  10.7215  10.7215  10.9605
    12.4908  12.4908  15.6352

          k = 0.0000 0.0000 0.4286 (  9586 PWs)   bands (ev):

   -16.3831 -16.3831 -16.3831 -16.3830 -16.3578 -16.3578 -16.3503 -16.3503
   -16.3445 -16.3387 -16.2747 -16.2564 -16.2450 -16.2448 -16.2448 -16.2448
   -16.2448 -16.2162 -16.1925 -16.1920 -16.1920 -16.1920 -16.1920 -16.1603
   -16.1593 -16.1593 -16.1593 -16.1592 -16.1165 -16.0993 -16.0678 -16.0665
   -16.0665 -16.0601 -16.0544 -16.0544 -16.0226 -16.0226 -16.0226 -16.0226
    -3.5601  -2.9893  -0.3244  -0.3244  -0.3244  -0.3244   3.1120   4.4098
     4.5997   4.5997   4.5997   4.5997   6.1641   6.1641   6.7344   6.7344
     9.3047   9.7066  10.9090  11.3801  12.1526  12.1527  12.1527  12.1527
    13.6790  13.6790  13.8691

          k = 0.0000 0.1429 0.1429 (  9577 PWs)   bands (ev):

   -16.3793 -16.3716 -16.3716 -16.3714 -16.3714 -16.3702 -16.3452 -16.3399
   -16.3353 -16.3004 -16.3003 -16.2923 -16.2872 -16.2835 -16.2598 -16.2501
   -16.2501 -16.2109 -16.2109 -16.1893 -16.1831 -16.1611 -16.1611 -16.1610
   -16.1610 -16.1501 -16.1282 -16.1102 -16.1102 -16.1051 -16.0996 -16.0829
   -16.0743 -16.0626 -16.0340 -16.0339 -16.0339 -16.0339 -16.0338 -16.0259
    -4.1390  -1.3614  -1.3614  -0.5495  -0.2240   0.6553   0.6553   4.6977
     5.2317   5.2317   5.3658   5.3658   5.5420   6.3730   7.7455   8.3493
     9.3599   9.5078   9.5078   9.7997   9.9976   9.9976  10.5824  11.2078
    11.2907  12.0461  15.7338

          k = 0.0000 0.1429 0.2857 (  9588 PWs)   bands (ev):

   -16.3848 -16.3782 -16.3769 -16.3731 -16.3679 -16.3672 -16.3519 -16.3455
   -16.3346 -16.3178 -16.2851 -16.2825 -16.2769 -16.2702 -16.2370 -16.2352
   -16.2348 -16.2199 -16.2127 -16.1944 -16.1900 -16.1814 -16.1723 -16.1701
   -16.1630 -16.1379 -16.1334 -16.1281 -16.1270 -16.0983 -16.0917 -16.0777
   -16.0746 -16.0554 -16.0408 -16.0398 -16.0316 -16.0289 -16.0277 -16.0210
    -3.8918  -2.2072  -1.2386  -0.7000  -0.0142   0.5740   1.7743   4.3159
     4.7504   5.1728   5.2523   5.4471   5.4902   5.7230   7.0580   7.7803
     9.5667   9.9202  10.5301  10.5475  10.6328  10.7375  10.9876  11.8879
    12.2984  12.9274  14.4553

          k = 0.0000 0.1429 0.4286 (  9587 PWs)   bands (ev):

   -16.3866 -16.3841 -16.3793 -16.3776 -16.3628 -16.3607 -16.3574 -16.3530
   -16.3338 -16.3289 -16.2733 -16.2660 -16.2657 -16.2561 -16.2462 -16.2200
   -16.2189 -16.2186 -16.2143 -16.2057 -16.1882 -16.1818 -16.1811 -16.1791
   -16.1697 -16.1570 -16.1414 -16.1412 -16.1178 -16.1030 -16.0809 -16.0788
   -16.0632 -16.0512 -16.0511 -16.0466 -16.0279 -16.0265 -16.0220 -16.0195
    -3.4831  -2.9187  -1.0632  -0.8730   0.2136   0.4225   2.9283   4.0931
     4.1930   4.3557   5.1166   5.2570   5.8384   6.2681   6.3877   6.9777
     9.8124  10.2197  11.1072  11.1258  11.2674  12.1097  12.2190  12.8610
    13.3578  13.3738  13.5451

          k = 0.0000 0.2857 0.2857 (  9591 PWs)   bands (ev):

   -16.3878 -16.3744 -16.3744 -16.3729 -16.3729 -16.3710 -16.3583 -16.3517
   -16.3259 -16.2992 -16.2992 -16.2819 -16.2780 -16.2638 -16.2360 -16.2360
   -16.2099 -16.2070 -16.2069 -16.2006 -16.1982 -16.1982 -16.1957 -16.1762
   -16.1399 -16.1399 -16.1290 -16.1270 -16.1152 -16.1119 -16.1119 -16.0842
   -16.0661 -16.0487 -16.0341 -16.0341 -16.0337 -16.0335 -16.0335 -16.0186
    -3.6509  -2.0318  -2.0318  -1.0569   0.3553   1.5247   1.5247   4.0487
     4.3625   4.8808   4.8808   5.7393   5.7394   5.9645   6.3789   7.9632
     9.7439  10.2917  10.7238  10.7238  11.3682  11.3682  11.7639  11.9477
    13.2814  13.4214  13.4818

          k = 0.0000 0.2857 0.4286 (  9580 PWs)   bands (ev):

   -16.3868 -16.3818 -16.3744 -16.3727 -16.3680 -16.3680 -16.3633 -16.3599
   -16.3183 -16.3106 -16.2820 -16.2789 -16.2699 -16.2558 -16.2467 -16.2354
   -16.2237 -16.2213 -16.2038 -16.2037 -16.1932 -16.1896 -16.1777 -16.1682
   -16.1494 -16.1483 -16.1312 -16.1296 -16.1212 -16.1142 -16.1033 -16.0949
   -16.0546 -16.0438 -16.0430 -16.0395 -16.0326 -16.0318 -16.0257 -16.0202
    -3.2544  -2.7103  -1.7595  -1.4213   0.7552   1.1626   2.4734   3.4190
     4.0780   4.3780   5.2149   5.7282   5.8640   6.0245   6.5046   7.3552
    10.3914  10.8193  10.9803  11.3727  11.4464  11.5485  12.2130  12.9240
    12.9618  13.2172  13.3672

          k = 0.0000 0.4286 0.4286 (  9576 PWs)   bands (ev):

   -16.3831 -16.3763 -16.3763 -16.3705 -16.3700 -16.3700 -16.3685 -16.3668
   -16.3038 -16.2931 -16.2931 -16.2848 -16.2651 -16.2536 -16.2536 -16.2406
   -16.2397 -16.2244 -16.2243 -16.2179 -16.1669 -16.1669 -16.1642 -16.1579
   -16.1474 -16.1300 -16.1300 -16.1278 -16.1270 -16.1252 -16.1252 -16.1107
   -16.0437 -16.0395 -16.0362 -16.0362 -16.0349 -16.0334 -16.0333 -16.0251
    -2.8808  -2.3755  -2.3755  -1.9353   1.3190   1.9045   1.9045   2.6608
     4.2405   4.6398   4.6398   5.1066   6.6009   6.7060   6.7061   7.3286
    10.2429  10.5090  10.8213  10.8214  12.4521  12.4521  12.6771  12.9547
    13.3807  13.3807  13.6322

          k = 0.1429 0.1429 0.1429 (  9576 PWs)   bands (ev):

   -16.3779 -16.3779 -16.3779 -16.3687 -16.3687 -16.3687 -16.3457 -16.3457
   -16.3326 -16.2970 -16.2970 -16.2970 -16.2863 -16.2863 -16.2423 -16.2423
   -16.2423 -16.2115 -16.2114 -16.2114 -16.1678 -16.1677 -16.1677 -16.1613
   -16.1612 -16.1612 -16.1138 -16.1137 -16.1137 -16.1033 -16.1033 -16.0927
   -16.0638 -16.0638 -16.0364 -16.0364 -16.0364 -16.0281 -16.0281 -16.0280
    -4.0569  -1.3320  -1.3320  -1.3320   0.6322   0.6322   0.6322   4.8229
     4.8229   4.8229   5.6259   5.6260   5.6260   5.7647   8.0546   8.0546
     9.4290   9.4290   9.4290   9.4863  10.7138  10.7138  10.7138  11.5737
    11.5737  12.2352  15.9964

          k = 0.1429 0.1429 0.2857 (  9575 PWs)   bands (ev):

   -16.3832 -16.3832 -16.3738 -16.3717 -16.3717 -16.3645 -16.3534 -16.3477
   -16.3318 -16.3133 -16.2861 -16.2861 -16.2819 -16.2703 -16.2351 -16.2248
   -16.2248 -16.2145 -16.2134 -16.2134 -16.1941 -16.1821 -16.1821 -16.1622
   -16.1622 -16.1383 -16.1256 -16.1243 -16.1243 -16.1008 -16.0968 -16.0891
   -16.0654 -16.0546 -16.0431 -16.0339 -16.0338 -16.0337 -16.0231 -16.0231
    -3.8120  -2.1528  -1.2612  -1.2612   0.5719   0.5719   1.6679   4.4650
     4.4650   4.7709   5.1975   5.5997   5.5997   5.8749   7.4468   7.5350
     9.6357   9.9979  10.0011  10.0011  11.0755  11.2289  11.9779  11.9779
    12.3918  13.1480  14.4825

          k = 0.1429 0.1429 0.4286 (  9589 PWs)   bands (ev):

   -16.3855 -16.3855 -16.3758 -16.3758 -16.3678 -16.3608 -16.3586 -16.3524
   -16.3303 -16.3246 -16.2734 -16.2734 -16.2718 -16.2558 -16.2480 -16.2224
   -16.2203 -16.2203 -16.2052 -16.2052 -16.1937 -16.1937 -16.1833 -16.1645
   -16.1644 -16.1535 -16.1354 -16.1353 -16.1188 -16.1052 -16.0863 -16.0845
   -16.0617 -16.0527 -16.0482 -16.0415 -16.0301 -16.0301 -16.0210 -16.0209
    -3.4078  -2.8510  -1.1986  -1.1985   0.5138   0.5138   2.7115   3.7448
     4.2984   4.2984   5.4523   5.4523   5.8114   6.2790   6.6260   6.8177
     9.9678  10.3302  11.1587  11.1587  11.3013  11.4784  12.7307  12.7308
    13.3682  13.4086  13.5708

          k = 0.1429 0.2857 0.2857 (  9580 PWs)   bands (ev):

   -16.3858 -16.3786 -16.3786 -16.3695 -16.3678 -16.3677 -16.3574 -16.3525
   -16.3262 -16.3004 -16.3004 -16.2875 -16.2755 -16.2654 -16.2364 -16.2363
   -16.2160 -16.2092 -16.2087 -16.2087 -16.1957 -16.1957 -16.1954 -16.1609
   -16.1399 -16.1399 -16.1240 -16.1239 -16.1140 -16.1112 -16.1112 -16.0921
   -16.0609 -16.0501 -16.0396 -16.0396 -16.0359 -16.0289 -16.0289 -16.0209
    -3.5745  -1.9986  -1.9986  -1.3519   0.6107   1.3917   1.3917   3.9204
     4.2874   4.8820   4.8821   5.9359   5.9360   6.0369   6.8576   7.8174
     9.7031   9.8263  10.2246  10.2246  11.8756  12.1626  12.1626  12.2145
    13.2989  13.4714  13.4714

          k = 0.1429 0.2857 0.4286 (  9609 PWs)   bands (ev):

   -16.3849 -16.3817 -16.3717 -16.3717 -16.3711 -16.3639 -16.3626 -16.3576
   -16.3198 -16.3118 -16.2862 -16.2835 -16.2686 -16.2555 -16.2498 -16.2375
   -16.2290 -16.2282 -16.2150 -16.2140 -16.1825 -16.1800 -16.1716 -16.1579
   -16.1454 -16.1451 -16.1282 -16.1267 -16.1217 -16.1137 -16.1026 -16.0968
   -16.0551 -16.0473 -16.0441 -16.0368 -16.0349 -16.0347 -16.0258 -16.0224
    -3.1846  -2.6530  -1.7744  -1.5353   0.7683   1.0534   2.2157   3.0532
     4.3521   4.5849   5.4782   5.9985   6.1104   6.1560   6.5089   7.2532
    10.2527  10.4328  10.4783  11.1442  11.6576  11.8891  11.9757  12.9209
    12.9818  13.2596  13.7566

          k = 0.1429 0.4286 0.4286 (  9593 PWs)   bands (ev):

   -16.3808 -16.3751 -16.3751 -16.3690 -16.3678 -16.3678 -16.3665 -16.3654
   -16.3073 -16.2970 -16.2969 -16.2890 -16.2644 -16.2542 -16.2541 -16.2444
   -16.2435 -16.2313 -16.2313 -16.2271 -16.1595 -16.1595 -16.1550 -16.1522
   -16.1421 -16.1271 -16.1271 -16.1262 -16.1243 -16.1238 -16.1238 -16.1109
   -16.0452 -16.0412 -16.0394 -16.0394 -16.0369 -16.0340 -16.0339 -16.0276
    -2.8228  -2.3411  -2.3411  -1.9486   1.1592   1.6593   1.6593   2.3295
     4.6058   5.0124   5.0124   5.5531   6.6450   6.7352   6.7352   7.3078
    10.1742  10.2271  10.6086  10.6086  12.0649  12.0649  12.4906  12.5168
    12.9787  13.5190  13.5640

          k = 0.2857 0.2857 0.2857 (  9609 PWs)   bands (ev):

   -16.3803 -16.3803 -16.3803 -16.3654 -16.3653 -16.3653 -16.3560 -16.3560
   -16.3253 -16.2994 -16.2994 -16.2994 -16.2678 -16.2678 -16.2374 -16.2374
   -16.2374 -16.2221 -16.2221 -16.2221 -16.1796 -16.1796 -16.1796 -16.1400
   -16.1399 -16.1399 -16.1177 -16.1177 -16.1138 -16.1138 -16.1138 -16.1014
   -16.0532 -16.0532 -16.0419 -16.0418 -16.0418 -16.0273 -16.0273 -16.0273
    -3.3479  -1.9183  -1.9183  -1.9182   1.1100   1.1100   1.1100   3.1379
     4.9409   4.9409   4.9409   6.2488   6.2488   6.2488   7.4526   7.4526
     9.0202  10.0282  10.0282  10.0282  12.1911  12.1911  12.7913  12.7913
    12.7914  13.9520  13.9521

          k = 0.2857 0.2857 0.4286 (  9598 PWs)   bands (ev):

   -16.3794 -16.3793 -16.3722 -16.3672 -16.3671 -16.3632 -16.3602 -16.3566
   -16.3204 -16.3113 -16.2941 -16.2941 -16.2654 -16.2553 -16.2549 -16.2415
   -16.2414 -16.2393 -16.2319 -16.2318 -16.1622 -16.1622 -16.1578 -16.1409
   -16.1409 -16.1357 -16.1234 -16.1217 -16.1217 -16.1156 -16.1054 -16.1020
   -16.0540 -16.0493 -16.0452 -16.0398 -16.0398 -16.0362 -16.0286 -16.0285
    -2.9804  -2.4910  -1.8469  -1.8468   0.8950   0.8950   1.6976   2.3742
     5.0241   5.0242   5.8639   6.3722   6.3722   6.5833   6.8740   7.0057
     9.5117  10.0890  10.4202  10.4202  11.9051  11.9750  12.0826  12.0827
    12.6822  13.3325  13.7885

          k = 0.2857 0.4286 0.4286 (  9595 PWs)   bands (ev):

   -16.3743 -16.3711 -16.3710 -16.3651 -16.3634 -16.3633 -16.3623 -16.3620
   -16.3152 -16.3056 -16.3056 -16.2999 -16.2625 -16.2551 -16.2550 -16.2537
   -16.2493 -16.2448 -16.2448 -16.2432 -16.1440 -16.1440 -16.1402 -16.1385
   -16.1311 -16.1260 -16.1260 -16.1212 -16.1210 -16.1169 -16.1168 -16.1099
   -16.0484 -16.0454 -16.0449 -16.0448 -16.0420 -16.0376 -16.0375 -16.0344
    -2.6591  -2.2577  -2.2577  -2.0169   0.9272   1.2178   1.2178   1.7268
     5.4642   5.8058   5.8058   6.4610   6.7671   6.8119   6.8120   7.2372
     9.3391   9.9475   9.9475   9.9870  11.9410  11.9410  12.1821  12.2755
    12.3030  12.9316  12.9316

          k = 0.4286 0.4286 0.4286 (  9601 PWs)   bands (ev):

   -16.3657 -16.3657 -16.3656 -16.3611 -16.3611 -16.3611 -16.3600 -16.3600
   -16.3192 -16.3125 -16.3125 -16.3125 -16.2592 -16.2592 -16.2557 -16.2556
   -16.2556 -16.2548 -16.2548 -16.2548 -16.1298 -16.1297 -16.1297 -16.1259
   -16.1258 -16.1258 -16.1233 -16.1233 -16.1135 -16.1135 -16.1135 -16.1085
   -16.0487 -16.0487 -16.0474 -16.0473 -16.0473 -16.0430 -16.0430 -16.0429
    -2.4240  -2.1835  -2.1835  -2.1834   0.9193   0.9193   0.9193   1.2086
     6.4809   6.4809   6.4809   6.9367   6.9368   6.9368   7.1079   7.1079
     8.6948   9.2610   9.2610   9.2610  12.0700  12.0700  12.0702  12.2287
    12.2289  12.4627  12.4627

     the Fermi energy is     8.5033 ev

!    total energy              =   -1709.20092602 Ry
     estimated scf accuracy    <          8.2E-10 Ry
     smearing contrib. (-TS)   =       0.00000767 Ry
     internal energy E=F+TS    =   -1709.20093369 Ry

     The total energy is F=E-TS. E is the sum of the following terms:
     one-electron contribution =   -1113.20854039 Ry
     hartree contribution      =     660.62360698 Ry
     xc contribution           =    -466.54733579 Ry
     ewald contribution        =    -790.06866449 Ry

     convergence has been achieved in   7 iterations

     Forces acting on atoms (cartesian axes, Ry/au):

     atom    1 type  1   force =     0.00000000    0.00000000    0.00000000
     atom    2 type  1   force =     0.00000000    0.00000000    0.00000000
     atom    3 type  1   force =     0.00000000    0.00000000    0.00000000
     atom    4 type  1   force =     0.00000000    0.00000000    0.00000000
     atom    5 type  1   force =     0.00003106    0.00003106   -0.00003106
     atom    6 type  1   force =     0.00003106   -0.00003106    0.00003106
     atom    7 type  1   force =    -0.00003106    0.00003106    0.00003106
     atom    8 type  1   force =    -0.00003106   -0.00003106   -0.00003106

     Total force =     0.000108     Total SCF correction =     0.000165
     SCF correction compared to forces is large: reduce conv_thr to get better values


     Computing stress (Cartesian axis) and pressure

          total   stress  (Ry/bohr**3)                   (kbar)     P=       35.81
   0.00024344   0.00000000   0.00000000           35.81        0.00        0.00
   0.00000000   0.00024344   0.00000000            0.00       35.81        0.00
   0.00000000   0.00000000   0.00024344            0.00        0.00       35.81


     Writing all to output data dir ./GeDIA_Full.save/ :
     XML data file, charge density, pseudopotentials, collected wavefunctions

     init_run     :     28.44s CPU     29.21s WALL (       1 calls)
     electrons    :    743.16s CPU    750.63s WALL (       1 calls)
     forces       :     21.86s CPU     22.44s WALL (       1 calls)
     stress       :     71.31s CPU     72.45s WALL (       1 calls)

     Called by init_run:
     wfcinit      :     26.61s CPU     26.85s WALL (       1 calls)
     potinit      :      0.33s CPU      0.37s WALL (       1 calls)
     hinit0       :      0.61s CPU      0.64s WALL (       1 calls)

     Called by electrons:
     c_bands      :    675.11s CPU    677.60s WALL (       8 calls)
     sum_band     :     60.91s CPU     64.20s WALL (       8 calls)
     v_of_rho     :      1.08s CPU      1.13s WALL (       8 calls)
     newd         :      6.77s CPU      8.85s WALL (       8 calls)
     mix_rho      :      0.11s CPU      0.12s WALL (       8 calls)

     Called by c_bands:
     init_us_2    :      2.82s CPU      2.87s WALL (     380 calls)
     cegterg      :    667.10s CPU    669.54s WALL (     160 calls)

     Called by *egterg:
     cdiaghg      :      6.02s CPU      6.06s WALL (     625 calls)
     h_psi        :    277.30s CPU    278.45s WALL (     665 calls)
     s_psi        :    104.91s CPU    105.02s WALL (     665 calls)
     g_psi        :      0.80s CPU      0.80s WALL (     485 calls)

     Called by h_psi:
     h_psi:calbec :    104.63s CPU    104.75s WALL (     665 calls)
     vloc_psi     :     66.89s CPU     67.20s WALL (     665 calls)
                                        0.00s GPU  (     665 calls)
     add_vuspsi   :    104.91s CPU    105.08s WALL (     665 calls)

     General routines
     calbec       :    226.22s CPU    226.46s WALL (    1165 calls)
     fft          :      0.83s CPU      0.84s WALL (     128 calls)
     ffts         :      0.18s CPU      0.18s WALL (      16 calls)
     fftw         :     65.27s CPU     65.57s WALL (   68434 calls)
     interpolate  :      0.21s CPU      0.21s WALL (       8 calls)

     Parallel routines

     PWSCF        :  14m24.98s CPU  14m35.44s WALL


   This run was terminated on:  14:33:13   6Aug2026            

=------------------------------------------------------------------------------=
   JOB DONE.
=------------------------------------------------------------------------------=
