
     Program PWSCF v.7.5 starts on 28Jul2026 at 18:32:34 

     This program is part of the open-source Quantum ESPRESSO suite
     for quantum simulation of materials; please cite
         "P. Giannozzi et al., J. Phys.:Condens. Matter 21 395502 (2009);
         "P. Giannozzi et al., J. Phys.:Condens. Matter 29 465901 (2017);
         "P. Giannozzi et al., J. Chem. Phys. 152 154105 (2020);
          URL http://www.quantum-espresso.org", 
     in publications or presentations arising from this work. More details at
     http://www.quantum-espresso.org/quote

     Parallel version (MPI), running on     1 processors

     MPI processes distributed on     1 nodes
     12147 MiB available memory on the printing compute node when the environment starts

     Reading input from espresso.pwi
Warning: card &CELL ignored
Warning: card &FCP ignored
Warning: card &RISM ignored

     Current dimensions of program PWSCF are:
     Max number of different atomic species (ntypx) = 10
     Max number of k-points (npk) =  40000
     Max angular momentum in pseudopotentials (lmaxx) =  4
     Message from routine setup:
     using ibrav=0 with symmetry is DISCOURAGED, use correct ibrav instead

     Subspace diagonalization in iterative solution of the eigenvalue problem:
     a serial algorithm will be used


     G-vector sticks info
     --------------------
     sticks:   dense  smooth     PW     G-vecs:    dense   smooth      PW
     Sum        1417     955    283                35149    19195    3143

     Using Slab Decomposition



     bravais-lattice index     =            0
     lattice parameter (alat)  =       7.5596  a.u.
     unit-cell volume          =     305.4751 (a.u.)^3
     number of atoms/cell      =            2
     number of atomic types    =            1
     number of electrons       =        28.00
     number of Kohn-Sham states=           18
     kinetic-energy cutoff     =      60.0000  Ry
     charge density cutoff     =     360.0000  Ry
     scf convergence threshold =      1.0E-08
     mixing beta               =       0.7000
     number of iterations used =            8  plain     mixing
     Exchange-correlation=  SLA  PW   PBX  PBC
                           (   1   4   3   4   0   0   0)

     celldm(1)=   7.559567  celldm(2)=   0.000000  celldm(3)=   0.000000
     celldm(4)=   0.000000  celldm(5)=   0.000000  celldm(6)=   0.000000

     crystal axes: (cart. coord. in units of alat)
               a(1) = (   0.000000   0.707107   0.707107 )  
               a(2) = (   0.707107   0.000000   0.707107 )  
               a(3) = (   0.707107   0.707107   0.000000 )  

     reciprocal axes: (cart. coord. in units 2 pi/alat)
               b(1) = ( -0.707107  0.707107  0.707107 )  
               b(2) = (  0.707107 -0.707107  0.707107 )  
               b(3) = (  0.707107  0.707107 -0.707107 )  


     PseudoPot. # 1 for Ge read from file:
     /home/yluo/ASE/pseudopotential-library/ge_pbe_v1.4.uspp.F.UPF
     MD5 check sum: 9c9eaa91e581c3f09632fb3098b2c6b2
     Pseudo is Ultrasoft + core correction, Zval = 14.0
     Generated by new atomic code, or converted to UPF format
     Using radial grid of  873 points,  6 beta functions with: 
                l(1) =   0
                l(2) =   0
                l(3) =   1
                l(4) =   1
                l(5) =   2
                l(6) =   2
     Q(r) pseudized with  8 coefficients,  rinner =    1.400   1.400   1.400
                                                       1.400   1.400

     atomic species   valence    mass     pseudopotential
     Ge               14.00    72.63000     Ge( 1.00)

     48 Sym. Ops., with inversion, found (24 have fractional translation)



   Cartesian axes

     site n.     atom                  positions (alat units)
         1        Ge     tau(   1) = (   0.0000000   0.0000000   0.0000000  )
         2        Ge     tau(   2) = (   0.3535534   0.3535534   0.3535534  )

     number of k points=   120  Marzari-Vanderbilt smearing, width (Ry)=  0.0050

     Number of k-points >= 100: set verbosity='high' to print them.

     Dense  grid:    35149 G-vectors     FFT dimensions: (  48,  48,  48)

     Smooth grid:    19195 G-vectors     FFT dimensions: (  40,  40,  40)

     Estimated max dynamical RAM per process >     212.39 MB

     Initial potential from superposition of free atoms

     starting charge      27.9983, renormalised to      28.0000
     Starting wfcs are   18 randomized atomic wfcs

     total cpu time spent up to now is        4.8 secs

     Self-consistent Calculation

     iteration #  1     ecut=    60.00 Ry     beta= 0.70
     Davidson diagonalization with overlap
     ethr =  1.00E-02,  avg # of iterations =  3.3

     Threshold (ethr) on eigenvalues was too large:
     Diagonalizing with lowered threshold

     Davidson diagonalization with overlap
     ethr =  1.17E-04,  avg # of iterations =  2.6

     total cpu time spent up to now is       27.0 secs

     total energy              =    -427.29920644 Ry
     estimated scf accuracy    <       0.03406163 Ry

     iteration #  2     ecut=    60.00 Ry     beta= 0.70
     Davidson diagonalization with overlap
     ethr =  1.22E-04,  avg # of iterations =  1.0

     total cpu time spent up to now is       35.9 secs

     total energy              =    -427.30016780 Ry
     estimated scf accuracy    <       0.00175779 Ry

     iteration #  3     ecut=    60.00 Ry     beta= 0.70
     Davidson diagonalization with overlap
     ethr =  6.28E-06,  avg # of iterations =  3.0

     total cpu time spent up to now is       46.6 secs

     total energy              =    -427.30024943 Ry
     estimated scf accuracy    <       0.00002278 Ry

     iteration #  4     ecut=    60.00 Ry     beta= 0.70
     Davidson diagonalization with overlap
     ethr =  8.13E-08,  avg # of iterations =  2.2

     total cpu time spent up to now is       59.3 secs

     total energy              =    -427.30025697 Ry
     estimated scf accuracy    <       0.00000230 Ry

     iteration #  5     ecut=    60.00 Ry     beta= 0.70
     Davidson diagonalization with overlap
     ethr =  8.21E-09,  avg # of iterations =  2.0

     total cpu time spent up to now is       72.1 secs

     total energy              =    -427.30025750 Ry
     estimated scf accuracy    <       0.00000005 Ry

     iteration #  6     ecut=    60.00 Ry     beta= 0.70
     Davidson diagonalization with overlap
     ethr =  1.91E-10,  avg # of iterations =  3.3

     total cpu time spent up to now is       86.5 secs

     End of self-consistent calculation

     Number of k-points >= 100: set verbosity='high' to print the bands.

     the Fermi energy is     8.4499 ev

!    total energy              =    -427.30025753 Ry
     estimated scf accuracy    <          4.1E-09 Ry
     smearing contrib. (-TS)   =       0.00001225 Ry
     internal energy E=F+TS    =    -427.30026979 Ry

     The total energy is F=E-TS. E is the sum of the following terms:
     one-electron contribution =    -278.30131714 Ry
     hartree contribution      =     165.15491239 Ry
     xc contribution           =    -116.63669891 Ry
     ewald contribution        =    -197.51716612 Ry

     convergence has been achieved in   6 iterations

     Forces acting on atoms (cartesian axes, Ry/au):

     atom    1 type  1   force =     0.00000000    0.00000000    0.00000000
     atom    2 type  1   force =    -0.00000000   -0.00000000    0.00000000

     Total force =     0.000000     Total SCF correction =     0.000000


     Computing stress (Cartesian axis) and pressure

          total   stress  (Ry/bohr**3)                   (kbar)     P=       34.75
   0.00023624   0.00000000   0.00000000           34.75        0.00        0.00
   0.00000000   0.00023624   0.00000000            0.00       34.75        0.00
   0.00000000   0.00000000   0.00023624            0.00        0.00       34.75


     Writing all to output data dir ./GeDIA.save/ :
     XML data file, charge density, pseudopotentials, collected wavefunctions

     init_run     :      4.44s CPU      4.67s WALL (       1 calls)
     electrons    :     80.34s CPU     81.71s WALL (       1 calls)
     forces       :      1.63s CPU      1.70s WALL (       1 calls)
     stress       :      6.10s CPU      6.29s WALL (       1 calls)

     Called by init_run:
     wfcinit      :      3.60s CPU      3.74s WALL (       1 calls)
     potinit      :      0.24s CPU      0.25s WALL (       1 calls)
     hinit0       :      0.43s CPU      0.43s WALL (       1 calls)

     Called by electrons:
     c_bands      :     70.34s CPU     70.65s WALL (       7 calls)
     sum_band     :      9.15s CPU      9.92s WALL (       7 calls)
     v_of_rho     :      0.25s CPU      0.27s WALL (       7 calls)
     newd         :      0.72s CPU      1.09s WALL (       7 calls)
     mix_rho      :      0.02s CPU      0.02s WALL (       7 calls)

     Called by c_bands:
     init_us_2    :      1.29s CPU      1.30s WALL (    2040 calls)
     cegterg      :     67.71s CPU     67.98s WALL (     840 calls)

     Called by *egterg:
     cdiaghg      :      1.21s CPU      1.32s WALL (    2813 calls)
     h_psi        :     41.95s CPU     42.26s WALL (    3053 calls)
     s_psi        :      6.21s CPU      6.21s WALL (    3053 calls)
     g_psi        :      0.22s CPU      0.23s WALL (    2093 calls)

     Called by h_psi:
     h_psi:calbec :      5.71s CPU      5.72s WALL (    3053 calls)
     vloc_psi     :     29.88s CPU     30.20s WALL (    3053 calls)
                                        0.00s GPU  (    3053 calls)
     add_vuspsi   :      6.17s CPU      6.16s WALL (    3053 calls)

     General routines
     calbec       :     13.06s CPU     13.05s WALL (    5933 calls)
     fft          :      0.33s CPU      0.34s WALL (     115 calls)
     ffts         :      0.18s CPU      0.18s WALL (      14 calls)
     fftw         :     30.20s CPU     30.37s WALL (   94830 calls)
     interpolate  :      0.19s CPU      0.19s WALL (       7 calls)

     Parallel routines

     PWSCF        :   1m32.66s CPU   1m34.64s WALL


   This run was terminated on:  18:34: 8  28Jul2026            

=------------------------------------------------------------------------------=
   JOB DONE.
=------------------------------------------------------------------------------=
