
     Program PWSCF v.7.5 starts on 19Jul2026 at 17:48:51 

     This program is part of the open-source Quantum ESPRESSO suite
     for quantum simulation of materials; please cite
         "P. Giannozzi et al., J. Phys.:Condens. Matter 21 395502 (2009);
         "P. Giannozzi et al., J. Phys.:Condens. Matter 29 465901 (2017);
         "P. Giannozzi et al., J. Chem. Phys. 152 154105 (2020);
          URL http://www.quantum-espresso.org", 
     in publications or presentations arising from this work. More details at
     http://www.quantum-espresso.org/quote

     Parallel version (MPI), running on     1 processors

     MPI processes distributed on     1 nodes
     12649 MiB available memory on the printing compute node when the environment starts

     Reading input from espresso.pwi
Warning: card &FCP ignored
Warning: card &RISM ignored

     Current dimensions of program PWSCF are:
     Max number of different atomic species (ntypx) = 10
     Max number of k-points (npk) =  40000
     Max angular momentum in pseudopotentials (lmaxx) =  4

     File ./SiO2.update deleted, as requested

     File ./SiO2.bfgs deleted, as requested
     file O.pbe-n-kjpaw_psl.0.1.UPF: wavefunction(s)  2P renormalized
     Message from routine setup:
     using ibrav=0 with symmetry is DISCOURAGED, use correct ibrav instead

     Subspace diagonalization in iterative solution of the eigenvalue problem:
     a serial algorithm will be used


     G-vector sticks info
     --------------------
     sticks:   dense  smooth     PW     G-vecs:    dense   smooth      PW
     Sum        1901    1901    553                40099    40099    6337

     Using Slab Decomposition



     bravais-lattice index     =            0
     lattice parameter (alat)  =       7.7473  a.u.
     unit-cell volume          =     296.6979 (a.u.)^3
     number of atoms/cell      =            6
     number of atomic types    =            2
     number of electrons       =        32.00
     number of Kohn-Sham states=           20
     kinetic-energy cutoff     =     100.0000  Ry
     charge density cutoff     =     400.0000  Ry
     scf convergence threshold =      1.0E-08
     mixing beta               =       0.7000
     number of iterations used =            8  plain     mixing
     energy convergence thresh.=      1.0E-04
     force convergence thresh. =      1.0E-03
     press convergence thresh. =      5.0E-01
     Exchange-correlation= SLA  PW   PBX  PBC
                           (   1   4   3   4   0   0   0)
     nstep                     =           50


     celldm(1)=   7.747310  celldm(2)=   0.000000  celldm(3)=   0.000000
     celldm(4)=   0.000000  celldm(5)=   0.000000  celldm(6)=   0.000000

     crystal axes: (cart. coord. in units of alat)
               a(1) = (   1.000000   0.000000   0.000000 )  
               a(2) = (   0.000000   1.000000   0.000000 )  
               a(3) = (   0.000000   0.000000   0.638060 )  

     reciprocal axes: (cart. coord. in units 2 pi/alat)
               b(1) = (  1.000000  0.000000  0.000000 )  
               b(2) = (  0.000000  1.000000  0.000000 )  
               b(3) = (  0.000000  0.000000  1.567250 )  


     PseudoPot. # 1 for Si read from file:
     /home/yluo/ASE/05b_ev/ase/src/Si.pbe-n-rrkjus_psl.1.0.0.UPF
     MD5 check sum: 0b0bb1205258b0d07b9f9672cf965d36
     Pseudo is Ultrasoft + core correction, Zval =  4.0
     Generated using "atomic" code by A. Dal Corso  v.5.1
     Using radial grid of 1141 points,  6 beta functions with: 
                l(1) =   0
                l(2) =   0
                l(3) =   1
                l(4) =   1
                l(5) =   2
                l(6) =   2
     Q(r) pseudized with 0 coefficients 


     PseudoPot. # 2 for O  read from file:
     /home/yluo/ASE/05b_ev/ase/src/O.pbe-n-kjpaw_psl.0.1.UPF
     MD5 check sum: 0234752ac141de4415c5fc33072bef88
     Pseudo is Projector augmented-wave + core cor, Zval =  6.0
     Generated using "atomic" code by A. Dal Corso  v.5.0.99 svn rev. 10869
     Shape of augmentation charge: BESSEL
     Using radial grid of 1095 points,  4 beta functions with: 
                l(1) =   0
                l(2) =   0
                l(3) =   1
                l(4) =   1
     Q(r) pseudized with 0 coefficients 


     atomic species   valence    mass     pseudopotential
     Si                4.00    28.08500     Si( 1.00)
     O                 6.00    15.99900     O ( 1.00)

     16 Sym. Ops., with inversion, found ( 8 have fractional translation)



   Cartesian axes

     site n.     atom                  positions (alat units)
         1        Si     tau(   1) = (   0.0000000   0.0000000   0.0000000  )
         2        Si     tau(   2) = (   0.5000000   0.5000000   0.3190301  )
         3        O      tau(   3) = (   0.3061300   0.3061300   0.0000000  )
         4        O      tau(   4) = (   0.6938700   0.6938700   0.0000000  )
         5        O      tau(   5) = (   0.1938700   0.8061300   0.3190301  )
         6        O      tau(   6) = (   0.8061300   0.1938700   0.3190301  )

     number of k points=    30  Marzari-Vanderbilt smearing, width (Ry)=  0.0050
                       cart. coord. in units 2pi/alat
        k(    1) = (   0.0000000   0.0000000   0.0000000), wk =   0.0138889
        k(    2) = (   0.0000000   0.0000000   0.1741389), wk =   0.0277778
        k(    3) = (   0.0000000   0.0000000   0.3482779), wk =   0.0277778
        k(    4) = (   0.0000000   0.0000000   0.5224168), wk =   0.0277778
        k(    5) = (   0.0000000   0.0000000   0.6965557), wk =   0.0277778
        k(    6) = (   0.0000000   0.2500000   0.0000000), wk =   0.0555556
        k(    7) = (   0.0000000   0.2500000   0.1741389), wk =   0.1111111
        k(    8) = (   0.0000000   0.2500000   0.3482779), wk =   0.1111111
        k(    9) = (   0.0000000   0.2500000   0.5224168), wk =   0.1111111
        k(   10) = (   0.0000000   0.2500000   0.6965557), wk =   0.1111111
        k(   11) = (   0.0000000  -0.5000000   0.0000000), wk =   0.0277778
        k(   12) = (   0.0000000  -0.5000000   0.1741389), wk =   0.0555556
        k(   13) = (   0.0000000  -0.5000000   0.3482779), wk =   0.0555556
        k(   14) = (   0.0000000  -0.5000000   0.5224168), wk =   0.0555556
        k(   15) = (   0.0000000  -0.5000000   0.6965557), wk =   0.0555556
        k(   16) = (   0.2500000   0.2500000   0.0000000), wk =   0.0555556
        k(   17) = (   0.2500000   0.2500000   0.1741389), wk =   0.1111111
        k(   18) = (   0.2500000   0.2500000   0.3482779), wk =   0.1111111
        k(   19) = (   0.2500000   0.2500000   0.5224168), wk =   0.1111111
        k(   20) = (   0.2500000   0.2500000   0.6965557), wk =   0.1111111
        k(   21) = (   0.2500000  -0.5000000   0.0000000), wk =   0.0555556
        k(   22) = (   0.2500000  -0.5000000   0.1741389), wk =   0.1111111
        k(   23) = (   0.2500000  -0.5000000   0.3482779), wk =   0.1111111
        k(   24) = (   0.2500000  -0.5000000   0.5224168), wk =   0.1111111
        k(   25) = (   0.2500000  -0.5000000   0.6965557), wk =   0.1111111
        k(   26) = (  -0.5000000  -0.5000000   0.0000000), wk =   0.0138889
        k(   27) = (  -0.5000000  -0.5000000   0.1741389), wk =   0.0277778
        k(   28) = (  -0.5000000  -0.5000000   0.3482779), wk =   0.0277778
        k(   29) = (  -0.5000000  -0.5000000   0.5224168), wk =   0.0277778
        k(   30) = (  -0.5000000  -0.5000000   0.6965557), wk =   0.0277778

     Dense  grid:    40099 G-vectors     FFT dimensions: (  50,  50,  32)

     Estimated max dynamical RAM per process >     205.39 MB

     Check: negative core charge=   -0.000002

     Initial potential from superposition of free atoms

     starting charge      31.9989, renormalised to      32.0000
     Starting wfcs are   24 randomized atomic wfcs
     Checking if some PAW data can be deallocated... 

     total cpu time spent up to now is        5.4 secs

     Self-consistent Calculation

     iteration #  1     ecut=   100.00 Ry     beta= 0.70
     Davidson diagonalization with overlap
     ethr =  1.00E-02,  avg # of iterations =  3.1

     total cpu time spent up to now is       16.6 secs

     total energy              =    -189.56953576 Ry
     estimated scf accuracy    <       1.12499453 Ry

     iteration #  2     ecut=   100.00 Ry     beta= 0.70
     Davidson diagonalization with overlap
     ethr =  3.52E-03,  avg # of iterations =  2.5

     total cpu time spent up to now is       27.0 secs

     total energy              =    -189.98970911 Ry
     estimated scf accuracy    <       0.43734602 Ry

     iteration #  3     ecut=   100.00 Ry     beta= 0.70
     Davidson diagonalization with overlap
     ethr =  1.37E-03,  avg # of iterations =  1.7

     total cpu time spent up to now is       33.6 secs

     total energy              =    -190.03975720 Ry
     estimated scf accuracy    <       0.01319098 Ry

     iteration #  4     ecut=   100.00 Ry     beta= 0.70
     Davidson diagonalization with overlap
     ethr =  4.12E-05,  avg # of iterations =  7.6

     total cpu time spent up to now is       47.2 secs

     total energy              =    -190.04836753 Ry
     estimated scf accuracy    <       0.01018317 Ry

     iteration #  5     ecut=   100.00 Ry     beta= 0.70
     Davidson diagonalization with overlap
     ethr =  3.18E-05,  avg # of iterations =  1.2

     total cpu time spent up to now is       54.5 secs

     total energy              =    -190.04837011 Ry
     estimated scf accuracy    <       0.00177035 Ry

     iteration #  6     ecut=   100.00 Ry     beta= 0.70
     Davidson diagonalization with overlap
     ethr =  5.53E-06,  avg # of iterations =  2.9

     total cpu time spent up to now is       63.2 secs

     total energy              =    -190.04866108 Ry
     estimated scf accuracy    <       0.00008978 Ry

     iteration #  7     ecut=   100.00 Ry     beta= 0.70
     Davidson diagonalization with overlap
     ethr =  2.81E-07,  avg # of iterations =  3.3

     total cpu time spent up to now is       73.7 secs

     total energy              =    -190.04869487 Ry
     estimated scf accuracy    <       0.00000131 Ry

     iteration #  8     ecut=   100.00 Ry     beta= 0.70
     Davidson diagonalization with overlap
     ethr =  4.09E-09,  avg # of iterations =  3.1

     total cpu time spent up to now is       83.6 secs

     total energy              =    -190.04869532 Ry
     estimated scf accuracy    <       0.00000009 Ry

     iteration #  9     ecut=   100.00 Ry     beta= 0.70
     Davidson diagonalization with overlap
     ethr =  2.69E-10,  avg # of iterations =  2.3

     total cpu time spent up to now is       91.6 secs

     End of self-consistent calculation

          k = 0.0000 0.0000 0.0000 (  4991 PWs)   bands (ev):

   -11.6586  -7.7216  -7.7216  -7.4778   0.3199   4.7853   4.7853   4.7877
     5.9043   6.1361   8.2282   8.2282   8.9737  10.6330  10.6330  11.5321
    18.2340  18.4662  20.5810  20.5810

          k = 0.0000 0.0000 0.1741 (  5015 PWs)   bands (ev):

   -11.4834  -7.6296  -7.6296  -7.4555   0.3856   4.9291   4.9291   4.9792
     5.4113   5.8992   7.6500   7.6500   8.3999  10.4980  10.4980  11.3695
    18.8122  19.4264  21.3275  21.3275

          k = 0.0000 0.0000 0.3483 (  5008 PWs)   bands (ev):

   -10.9744  -7.4649  -7.3833  -7.3833   0.5318   4.5559   5.0577   5.3362
     5.3362   5.5410   6.3857   6.3857   7.3044  10.0775  10.0775  10.8553
    19.8216  21.5299  22.0530  23.0142

          k = 0.0000 0.0000 0.5224 (  5028 PWs)   bands (ev):

   -10.1878  -7.7047  -7.0754  -7.0754   0.7297   3.6663   4.2351   5.0907
     5.0907   5.9990   5.9990   6.3246   6.4309   9.4201   9.4201   9.9716
    20.3598  22.7668  22.8926  24.5524

          k = 0.0000 0.0000 0.6966 (  5028 PWs)   bands (ev):

    -9.2392  -8.3290  -6.8544  -6.8544   1.2310   2.2549   4.3457   4.3457
     4.6280   5.4158   6.6043   6.6043   7.5668   8.7666   8.7666   8.8113
    20.9932  22.0053  24.1793  25.0193

          k = 0.0000 0.2500 0.0000 (  5009 PWs)   bands (ev):

   -11.3120  -8.9376  -7.5458  -6.9776   0.7202   3.4210   5.0747   5.9214
     6.1588   7.1176   7.7219   8.3783   8.9798   9.3939  10.5132  11.0475
    19.0522  19.0619  20.7540  20.7936

          k = 0.0000 0.2500 0.1741 (  5001 PWs)   bands (ev):

   -11.1421  -8.8208  -7.4659  -6.9562   0.8373   3.5310   4.7690   5.6268
     6.4290   6.4729   7.6004   7.8734   8.2258   9.6455  10.3665  10.9955
    19.4905  19.9616  21.4123  21.4935

          k = 0.0000 0.2500 0.3483 (  5015 PWs)   bands (ev):

   -10.6507  -8.5126  -7.2606  -6.9417   1.1120   3.7308   3.8143   5.0700
     5.6196   6.6879   6.8626   7.0414   7.4731   9.6912   9.9284  10.7137
    20.2377  21.8548  22.6415  22.9576

          k = 0.0000 0.2500 0.5224 (  5014 PWs)   bands (ev):

    -9.9015  -8.1902  -7.0360  -7.0177   1.2928   3.0944   3.3417   4.4948
     4.9625   5.3753   7.1190   7.1600   7.4164   9.2997   9.4524  10.1311
    20.6472  22.4043  22.5847  23.5590

          k = 0.0000 0.2500 0.6966 (  5004 PWs)   bands (ev):

    -9.0316  -8.3175  -7.0263  -6.9437   1.4501   2.0447   3.6198   4.0785
     4.4724   4.7181   7.1380   7.4682   8.1031   8.9172   8.9533   9.3961
    21.0196  21.6637  22.8569  23.2427

          k = 0.0000-0.5000 0.0000 (  4996 PWs)   bands (ev):

   -10.3320 -10.3320  -7.1518  -7.1518   1.8095   1.8095   6.8246   6.8246
     6.8481   6.8481   7.3995   7.3995   8.7239   8.7239  10.4038  10.4038
    20.0404  20.0404  21.1381  21.1381

          k = 0.0000-0.5000 0.1741 (  4996 PWs)   bands (ev):

   -10.1797 -10.1797  -7.1046  -7.1046   1.9537   1.9537   5.5331   5.5331
     7.0414   7.0414   7.7700   7.7700   8.4703   8.4703  10.3095  10.3095
    20.6501  20.6501  21.8353  21.8354

          k = 0.0000-0.5000 0.3483 (  5016 PWs)   bands (ev):

    -9.7484  -9.7484  -7.0086  -7.0086   2.3465   2.3465   3.9532   3.9532
     6.2267   6.2267   7.9631   7.9631   8.4475   8.4475  10.0629  10.0629
    21.4953  21.4953  22.7913  22.7915

          k = 0.0000-0.5000 0.5224 (  4998 PWs)   bands (ev):

    -9.1307  -9.1307  -6.9872  -6.9872   2.6054   2.6054   2.8448   2.8448
     5.1818   5.1818   7.7484   7.7484   8.7625   8.7625   9.8136   9.8136
    21.4213  21.4213  22.2557  22.2557

          k = 0.0000-0.5000 0.6966 (  5010 PWs)   bands (ev):

    -8.5645  -8.5645  -7.1162  -7.1162   1.8955   1.8955   3.0548   3.0548
     4.7029   4.7029   7.3694   7.3694   9.0623   9.0623   9.6634   9.6634
    21.0233  21.0233  22.1060  22.1060

          k = 0.2500 0.2500 0.0000 (  5011 PWs)   bands (ev):

   -10.9866  -9.1178  -7.9426  -7.0562   1.2687   3.6128   4.8056   6.4008
     6.4402   7.3920   7.7033   8.1566   8.8591   8.9439   9.9917  10.6892
    19.0435  19.8419  20.7171  21.5818

          k = 0.2500 0.2500 0.1741 (  5008 PWs)   bands (ev):

   -10.8223  -9.0002  -7.8432  -7.0214   1.3772   3.4081   4.9103   5.8589
     6.4636   6.6493   7.6608   7.8291   8.1545   9.3658   9.9604  10.7371
    19.6216  20.5257  21.2698  22.2634

          k = 0.2500 0.2500 0.3483 (  5002 PWs)   bands (ev):

   -10.3501  -8.6897  -7.5760  -6.9654   1.5778   2.7834   4.6631   5.0031
     5.8159   6.0765   6.7277   7.4208   8.1791   9.4481   9.8212  10.6172
    20.3035  21.7238  22.4683  23.3503

          k = 0.2500 0.2500 0.5224 (  5031 PWs)   bands (ev):

    -9.6425  -8.3428  -7.2387  -6.9992   1.2915   2.3592   3.6614   4.2431
     4.8123   6.2163   6.2206   7.9483   8.1383   9.2704   9.4932  10.2252
    20.3590  21.3234  23.1685  23.8323

          k = 0.2500 0.2500 0.6966 (  5013 PWs)   bands (ev):

    -8.8604  -8.3125  -7.1070  -6.9942   0.8319   1.9761   3.5409   3.6335
     3.9826   6.0317   6.6898   8.2300   8.6143   8.9767   9.0852   9.6928
    20.3147  20.8424  22.9936  23.5009

          k = 0.2500-0.5000 0.0000 (  5006 PWs)   bands (ev):

   -10.0994 -10.0994  -7.6097  -7.6097   2.5012   2.5012   6.1868   6.1868
     7.0405   7.0405   7.8819   7.8819   8.4607   8.4607   9.9692   9.9692
    19.7862  19.7862  21.6423  21.6423

          k = 0.2500-0.5000 0.1741 (  4998 PWs)   bands (ev):

    -9.9537  -9.9537  -7.5340  -7.5340   2.5049   2.5049   5.6183   5.6183
     6.7653   6.7653   7.7668   7.7668   8.4643   8.4643  10.0550  10.0550
    20.3403  20.3403  22.2417  22.2417

          k = 0.2500-0.5000 0.3483 (  5010 PWs)   bands (ev):

    -9.5455  -9.5455  -7.3475  -7.3475   2.2914   2.2914   4.6910   4.6910
     5.7640   5.7640   7.7535   7.7535   8.6805   8.6805  10.0559  10.0559
    20.8872  20.8872  23.4422  23.4422

          k = 0.2500-0.5000 0.5224 (  5028 PWs)   bands (ev):

    -8.9790  -8.9790  -7.1692  -7.1692   1.5744   1.5744   4.0040   4.0040
     5.0617   5.0617   7.8215   7.8215   8.9377   8.9377   9.9104   9.9104
    20.4752  20.4752  23.2439  23.2440

          k = 0.2500-0.5000 0.6966 (  5030 PWs)   bands (ev):

    -8.4965  -8.4965  -7.1198  -7.1198   0.9604   0.9604   3.3449   3.3449
     5.1523   5.1523   7.7872   7.7872   9.1066   9.1066   9.7957   9.7957
    20.0522  20.0522  22.7654  22.7654

          k =-0.5000-0.5000 0.0000 (  4996 PWs)   bands (ev):

    -9.7661  -9.7661  -8.1482  -8.1482   3.4372   3.4372   5.3686   5.3686
     7.3458   7.3458   8.0861   8.0861   8.7555   8.7555   9.0590   9.0590
    19.6654  19.6654  22.1925  22.1925

          k =-0.5000-0.5000 0.1741 (  4988 PWs)   bands (ev):

    -9.6323  -9.6323  -8.0426  -8.0426   3.1739   3.1739   5.3708   5.3708
     7.0872   7.0872   7.1575   7.1575   9.1440   9.1440   9.3113   9.3113
    20.1777  20.1777  22.7211  22.7212

          k =-0.5000-0.5000 0.3483 (  4988 PWs)   bands (ev):

    -9.2659  -9.2659  -7.7572  -7.7572   2.3447   2.3447   4.8897   4.8897
     6.4020   6.4020   6.7605   6.7605   9.3680   9.3680   9.6835   9.6835
    20.6144  20.6144  23.4659  23.4659

          k =-0.5000-0.5000 0.5224 (  5028 PWs)   bands (ev):

    -8.7868  -8.7868  -7.3940  -7.3940   1.2336   1.2336   3.7487   3.7487
     6.5663   6.5663   6.7237   6.7237   9.6400   9.6400   9.7523   9.7523
    20.0999  20.0999  23.2409  23.2409

          k =-0.5000-0.5000 0.6966 (  5036 PWs)   bands (ev):

    -8.4234  -8.4234  -7.1280  -7.1280   0.4501   0.4501   2.9761   2.9761
     6.8020   6.8020   6.8321   6.8321   9.6811   9.6811   9.8291   9.8291
    19.5756  19.5756  23.0152  23.0153

     the Fermi energy is    16.1900 ev

!    total energy              =    -190.04869534 Ry
     estimated scf accuracy    <          4.3E-09 Ry
     smearing contrib. (-TS)   =       0.00000000 Ry
     internal energy E=F+TS    =    -190.04869534 Ry

     The total energy is F=E-TS. E is the sum of the following terms:
     one-electron contribution =      -9.04604926 Ry
     hartree contribution      =      30.79193609 Ry
     xc contribution           =     -43.50797745 Ry
     ewald contribution        =    -130.30476346 Ry
     one-center paw contrib.   =     -37.98184126 Ry

     convergence has been achieved in   9 iterations

     Forces acting on atoms (cartesian axes, Ry/au):

     atom    1 type  1   force =     0.00000000    0.00000000   -0.00000000
     atom    2 type  1   force =     0.00000000    0.00000000    0.00000000
     atom    3 type  2   force =    -0.01563891   -0.01563891    0.00000000
     atom    4 type  2   force =     0.01563891    0.01563891   -0.00000000
     atom    5 type  2   force =     0.01563891   -0.01563891    0.00000000
     atom    6 type  2   force =    -0.01563891    0.01563891   -0.00000000

     Total force =     0.044234     Total SCF correction =     0.000001


     Computing stress (Cartesian axis) and pressure

          total   stress  (Ry/bohr**3)                   (kbar)     P=      338.37
   0.00215373   0.00000000   0.00000000          316.83        0.00        0.00
   0.00000000   0.00215373   0.00000000            0.00      316.83        0.00
   0.00000000   0.00000000   0.00259314            0.00        0.00      381.46


     BFGS Geometry Optimization
     Energy error            =      2.9E-03 Ry
     Gradient error          =      1.6E-02 Ry/Bohr
     Cell gradient error     =      4.3E+01 kbar

     number of scf cycles    =   1
     number of bfgs steps    =   0

     enthalpy           new  =    -189.3662330767 Ry

     new trust radius        =       0.0252303837 bohr
     new conv_thr            =       0.0000000100 Ry

     new unit-cell volume =    296.68623 a.u.^3 (    43.96436 Ang^3 )
     density =      4.53868 g/cm^3

CELL_PARAMETERS (angstrom)
   4.084689037   0.000000000   0.000000000
   0.000000000   4.084689037   0.000000000
   0.000000000   0.000000000   2.635013195

ATOMIC_POSITIONS (angstrom)
Si               0.0000000000        0.0000000000       -0.0000000000
Si               2.0423445184        2.0423445184        1.3175065977
O                1.2422003991        1.2422003991        0.0000000000
O                2.8424886378        2.8424886378       -0.0000000000
O                0.8001441193        3.2845449176        1.3175065977
O                3.2845449176        0.8001441193        1.3175065977



     Writing config-only to output data dir ./SiO2.save/ :
     XML data file
     NEW-OLD atomic charge density approx. for the potential
     New effective cutoffs (rho, wfc):  402.61  100.71

     Check: negative core charge=   -0.000002

     total cpu time spent up to now is      102.6 secs

     Self-consistent Calculation

     iteration #  1     ecut=   100.00 Ry     beta= 0.70
     Davidson diagonalization with overlap
     ethr =  1.00E-06,  avg # of iterations =  8.5

     total cpu time spent up to now is      122.8 secs

     total energy              =    -190.05033418 Ry
     estimated scf accuracy    <       0.00064878 Ry

     iteration #  2     ecut=   100.00 Ry     beta= 0.70
     Davidson diagonalization with overlap
     ethr =  2.03E-06,  avg # of iterations =  2.1

     total cpu time spent up to now is      132.0 secs

     total energy              =    -190.05042668 Ry
     estimated scf accuracy    <       0.00001303 Ry

     iteration #  3     ecut=   100.00 Ry     beta= 0.70
     Davidson diagonalization with overlap
     ethr =  4.07E-08,  avg # of iterations =  2.0

     total cpu time spent up to now is      140.2 secs

     total energy              =    -190.05042778 Ry
     estimated scf accuracy    <       0.00000094 Ry

     iteration #  4     ecut=   100.00 Ry     beta= 0.70
     Davidson diagonalization with overlap
     ethr =  2.95E-09,  avg # of iterations =  2.3

     total cpu time spent up to now is      149.0 secs

     total energy              =    -190.05042793 Ry
     estimated scf accuracy    <       0.00000001 Ry

     iteration #  5     ecut=   100.00 Ry     beta= 0.70
     Davidson diagonalization with overlap
     ethr =  3.91E-11,  avg # of iterations =  4.3

     total cpu time spent up to now is      160.1 secs

     End of self-consistent calculation

          k = 0.0000 0.0000 0.0000 (  4991 PWs)   bands (ev):

   -11.6094  -7.6895  -7.6895  -7.2922   0.2169   4.7801   4.8212   4.8212
     5.8399   6.2362   8.2299   8.2299   9.0601  10.6582  10.6582  11.5761
    18.1601  18.3779  20.4046  20.4046

          k = 0.0000 0.0000 0.1729 (  5015 PWs)   bands (ev):

   -11.4365  -7.6008  -7.6008  -7.2819   0.2842   4.9615   4.9615   4.9690
     5.3766   5.9913   7.6600   7.6600   8.4878  10.5224  10.5224  11.4018
    18.7327  19.3202  21.1532  21.1532

          k = 0.0000 0.0000 0.3457 (  5008 PWs)   bands (ev):

   -10.9338  -7.3635  -7.3635  -7.3266   0.4487   4.5734   5.1435   5.3606
     5.3606   5.5235   6.4135   6.4135   7.3809  10.1019  10.1019  10.8590
    19.7282  21.4111  22.0132  22.8690

          k = 0.0000 0.0000 0.5186 (  5028 PWs)   bands (ev):

   -10.1545  -7.6169  -7.0679  -7.0679   0.7066   3.7598   4.2720   5.1555
     5.1555   5.9893   5.9893   6.3698   6.4033   9.4533   9.4533   9.9472
    20.3058  22.7305  22.8899  24.5500

          k = 0.0000 0.0000 0.6915 (  5028 PWs)   bands (ev):

    -9.2076  -8.2820  -6.8565  -6.8565   1.2806   2.3431   4.4238   4.4238
     4.6549   5.4409   6.5656   6.5656   7.5302   8.7734   8.8247   8.8247
    20.9933  22.0251  24.1674  25.3256

          k = 0.0000 0.2509 0.0000 (  5009 PWs)   bands (ev):

   -11.2581  -8.8535  -7.5074  -6.8780   0.6668   3.4795   5.0982   5.8994
     6.1024   7.1383   7.7151   8.3895   9.0469   9.4225  10.5537  11.0944
    18.9824  18.9876  20.6352  20.6474

          k = 0.0000 0.2509 0.1729 (  5001 PWs)   bands (ev):

   -11.0904  -8.7391  -7.4312  -6.8668   0.7815   3.5871   4.7661   5.6120
     6.4248   6.4579   7.6310   7.8968   8.2762   9.6903  10.4052  11.0366
    19.4151  19.8695  21.3078  21.3397

          k = 0.0000 0.2509 0.3457 (  5015 PWs)   bands (ev):

   -10.6053  -8.4362  -7.2368  -6.8835   1.0562   3.7835   3.8285   5.0736
     5.6227   6.7539   6.8582   7.0849   7.4932   9.7385   9.9652  10.7393
    20.1647  21.7546  22.5123  22.8778

          k = 0.0000 0.2509 0.5186 (  5014 PWs)   bands (ev):

    -9.8630  -8.1162  -7.0276  -7.0080   1.2777   3.1549   3.3633   4.5018
     5.0089   5.4531   7.1183   7.1782   7.4036   9.3465   9.5008  10.1386
    20.5976  22.3751  22.5901  23.7037

          k = 0.0000 0.2509 0.6915 (  5004 PWs)   bands (ev):

    -8.9931  -8.2597  -7.0412  -6.9499   1.5006   2.1166   3.6197   4.0958
     4.5426   4.7766   7.1192   7.4329   8.1181   8.9595   9.0096   9.4089
    20.9988  21.6555  22.9570  23.4045

          k = 0.0000-0.5018 0.0000 (  4996 PWs)   bands (ev):

   -10.2645 -10.2645  -7.0917  -7.0917   1.8328   1.8328   6.8139   6.8139
     6.8155   6.8155   7.3829   7.3829   8.7606   8.7606  10.4730  10.4730
    19.9795  19.9795  21.0125  21.0125

          k = 0.0000-0.5018 0.1729 (  4996 PWs)   bands (ev):

   -10.1145 -10.1145  -7.0505  -7.0505   1.9726   1.9726   5.5033   5.5033
     7.0496   7.0496   7.7425   7.7425   8.5268   8.5268  10.3741  10.3741
    20.5772  20.5772  21.7064  21.7065

          k = 0.0000-0.5018 0.3457 (  5016 PWs)   bands (ev):

    -9.6893  -9.6893  -6.9719  -6.9719   2.3517   2.3517   3.9543   3.9543
     6.2480   6.2480   7.9535   7.9535   8.5050   8.5050  10.1188  10.1188
    21.4429  21.4429  22.8377  22.8377

          k = 0.0000-0.5018 0.5186 (  4998 PWs)   bands (ev):

    -9.0773  -9.0773  -6.9775  -6.9775   2.6350   2.6350   2.8407   2.8407
     5.2394   5.2394   7.7296   7.7296   8.8173   8.8173   9.8616   9.8616
    21.3787  21.3787  22.3470  22.3470

          k = 0.0000-0.5018 0.6915 (  5010 PWs)   bands (ev):

    -8.5070  -8.5070  -7.1358  -7.1358   1.9680   1.9680   3.0225   3.0225
     4.7827   4.7827   7.3442   7.3442   9.1191   9.1191   9.7009   9.7009
    20.9861  20.9861  22.2298  22.2298

          k = 0.2509 0.2509 0.0000 (  5011 PWs)   bands (ev):

   -10.9270  -9.0162  -7.9186  -6.9828   1.2496   3.6379   4.8715   6.3528
     6.4165   7.3686   7.7070   8.1527   8.9101   8.9834  10.0320  10.7114
    18.9852  19.7796  20.6700  21.4323

          k = 0.2509 0.2509 0.1729 (  5008 PWs)   bands (ev):

   -10.7651  -8.9019  -7.8223  -6.9557   1.3511   3.4184   4.9722   5.8551
     6.4258   6.6387   7.6735   7.8628   8.1517   9.4412   9.9962  10.7676
    19.5513  20.4485  21.2078  22.1020

          k = 0.2509 0.2509 0.3457 (  5002 PWs)   bands (ev):

   -10.2992  -8.6001  -7.5637  -6.9227   1.5331   2.7866   4.7050   5.0434
     5.8351   6.0504   6.7907   7.4404   8.1741   9.5383   9.8501  10.6547
    20.2250  21.6284  22.4005  23.3361

          k = 0.2509 0.2509 0.5186 (  5031 PWs)   bands (ev):

    -9.5984  -8.2639  -7.2382  -6.9917   1.2762   2.3529   3.7331   4.2662
     4.8335   6.2174   6.3082   7.9535   8.1330   9.3624   9.5285  10.2538
    20.2933  21.2970  23.2069  23.9281

          k = 0.2509 0.2509 0.6915 (  5013 PWs)   bands (ev):

    -8.8158  -8.2488  -7.1260  -7.0029   0.8535   2.0143   3.5754   3.6633
     4.0102   6.1224   6.6590   8.2258   8.6332   9.0731   9.1232   9.7122
    20.2590  20.8560  23.1109  23.5644

          k = 0.2509-0.5018 0.0000 (  5006 PWs)   bands (ev):

   -10.0220 -10.0220  -7.5652  -7.5652   2.5219   2.5219   6.2209   6.2209
     7.0162   7.0162   7.8503   7.8503   8.4805   8.4805  10.0028  10.0028
    19.7577  19.7577  21.5539  21.5539

          k = 0.2509-0.5018 0.1729 (  4998 PWs)   bands (ev):

    -9.8789  -9.8789  -7.4941  -7.4941   2.5128   2.5128   5.6305   5.6305
     6.7669   6.7669   7.7533   7.7533   8.4986   8.4986  10.0951  10.0951
    20.2946  20.2946  22.1385  22.1385

          k = 0.2509-0.5018 0.3457 (  5010 PWs)   bands (ev):

    -9.4776  -9.4776  -7.3212  -7.3212   2.2696   2.2696   4.7258   4.7258
     5.7710   5.7710   7.7856   7.7856   8.7149   8.7149  10.1087  10.1087
    20.8158  20.8158  23.3621  23.3621

          k = 0.2509-0.5018 0.5186 (  5028 PWs)   bands (ev):

    -8.9182  -8.9182  -7.1642  -7.1642   1.5601   1.5601   4.0216   4.0216
     5.1137   5.1137   7.8479   7.8479   8.9839   8.9839   9.9688   9.9688
    20.4106  20.4106  23.3158  23.3158

          k = 0.2509-0.5018 0.6915 (  5030 PWs)   bands (ev):

    -8.4365  -8.4365  -7.1370  -7.1370   0.9704   0.9704   3.3633   3.3633
     5.2062   5.2062   7.8001   7.8001   9.1785   9.1785   9.8425   9.8425
    19.9992  19.9992  22.8502  22.8502

          k =-0.5018-0.5018 0.0000 (  4996 PWs)   bands (ev):

    -9.6661  -9.6661  -8.1312  -8.1312   3.4327   3.4327   5.4579   5.4579
     7.3439   7.3439   8.0769   8.0769   8.6633   8.6633   9.1165   9.1165
    19.6566  19.6566  22.1304  22.1304

          k =-0.5018-0.5018 0.1729 (  4988 PWs)   bands (ev):

    -9.5357  -9.5357  -8.0285  -8.0285   3.1531   3.1531   5.4525   5.4525
     7.1056   7.1056   7.1231   7.1231   9.1978   9.1978   9.2871   9.2871
    20.1434  20.1434  22.6547  22.6547

          k =-0.5018-0.5018 0.3457 (  4988 PWs)   bands (ev):

    -9.1788  -9.1788  -7.7515  -7.7515   2.3070   2.3070   4.9154   4.9154
     6.3911   6.3911   6.8549   6.8549   9.4119   9.4119   9.7127   9.7127
    20.5307  20.5307  23.4246  23.4246

          k =-0.5018-0.5018 0.5186 (  5028 PWs)   bands (ev):

    -8.7130  -8.7130  -7.3998  -7.3998   1.2069   1.2069   3.7564   3.7564
     6.5612   6.5612   6.8438   6.8438   9.6712   9.6712   9.8311   9.8311
    20.0026  20.0026  23.2578  23.2578

          k =-0.5018-0.5018 0.6915 (  5036 PWs)   bands (ev):

    -8.3606  -8.3606  -7.1429  -7.1429   0.4396   0.4396   2.9913   2.9913
     6.8047   6.8047   6.9276   6.9276   9.7985   9.7985   9.8510   9.8510
    19.4828  19.4828  23.1259  23.1259

     the Fermi energy is    16.4320 ev

!    total energy              =    -190.05042794 Ry
     estimated scf accuracy    <          2.7E-09 Ry
     smearing contrib. (-TS)   =       0.00000000 Ry
     internal energy E=F+TS    =    -190.05042794 Ry

     The total energy is F=E-TS. E is the sum of the following terms:
     one-electron contribution =      -8.73099665 Ry
     hartree contribution      =      30.65667792 Ry
     xc contribution           =     -43.48930618 Ry
     ewald contribution        =    -130.50469841 Ry
     one-center paw contrib.   =     -37.98210462 Ry

     convergence has been achieved in   5 iterations

     Forces acting on atoms (cartesian axes, Ry/au):

     atom    1 type  1   force =     0.00000000    0.00000000    0.00000000
     atom    2 type  1   force =     0.00000000    0.00000000    0.00000000
     atom    3 type  2   force =    -0.00359496   -0.00359496   -0.00000000
     atom    4 type  2   force =     0.00359496    0.00359496    0.00000000
     atom    5 type  2   force =     0.00359496   -0.00359496   -0.00000000
     atom    6 type  2   force =    -0.00359496    0.00359496    0.00000000

     Total force =     0.010168     Total SCF correction =     0.000049


     Computing stress (Cartesian axis) and pressure

          total   stress  (Ry/bohr**3)                   (kbar)     P=      321.63
   0.00216106   0.00000000   0.00000000          317.90        0.00        0.00
   0.00000000   0.00216106   0.00000000            0.00      317.90        0.00
   0.00000000   0.00000000   0.00223706            0.00        0.00      329.08

     Energy error            =      1.8E-03 Ry
     Gradient error          =      3.6E-03 Ry/Bohr
     Cell gradient error     =      2.0E+01 kbar

     number of scf cycles    =   2
     number of bfgs steps    =   1

     enthalpy           old  =    -189.3662330767 Ry
     enthalpy           new  =    -189.3679924882 Ry

     CASE: enthalpy          _new < enthalpy          _old

     new trust radius        =       0.0173394809 bohr
     new conv_thr            =       0.0000000004 Ry

     new unit-cell volume =    293.47100 a.u.^3 (    43.48792 Ang^3 )
     density =      4.58841 g/cm^3

CELL_PARAMETERS (angstrom)
   4.064129355   0.000000000   0.000000000
   0.000000000   4.064129355   0.000000000
   0.000000000   0.000000000   2.632895017

ATOMIC_POSITIONS (angstrom)
Si               0.0000000000        0.0000000000        0.0000000000
Si               2.0320646773        2.0320646773        1.3164475084
O                1.2322471337        1.2322471337       -0.0000000000
O                2.8318822209        2.8318822209        0.0000000000
O                0.7998175436        3.2643118110        1.3164475084
O                3.2643118110        0.7998175436        1.3164475084



     Writing config-only to output data dir ./SiO2.save/ :
     XML data file
     NEW-OLD atomic charge density approx. for the potential
     New effective cutoffs (rho, wfc):  406.57  101.73

     Check: negative core charge=   -0.000002

     total cpu time spent up to now is      170.9 secs

     Self-consistent Calculation

     iteration #  1     ecut=   100.00 Ry     beta= 0.70
     Davidson diagonalization with overlap
     ethr =  1.00E-06,  avg # of iterations =  6.7

     total cpu time spent up to now is      189.2 secs

     total energy              =    -190.04304618 Ry
     estimated scf accuracy    <       0.00011815 Ry

     iteration #  2     ecut=   100.00 Ry     beta= 0.70
     Davidson diagonalization with overlap
     ethr =  3.69E-07,  avg # of iterations =  2.0

     total cpu time spent up to now is      198.6 secs

     total energy              =    -190.04306684 Ry
     estimated scf accuracy    <       0.00002442 Ry

     iteration #  3     ecut=   100.00 Ry     beta= 0.70
     Davidson diagonalization with overlap
     ethr =  7.63E-08,  avg # of iterations =  2.0

     total cpu time spent up to now is      207.8 secs

     total energy              =    -190.04307038 Ry
     estimated scf accuracy    <       0.00000061 Ry

     iteration #  4     ecut=   100.00 Ry     beta= 0.70
     Davidson diagonalization with overlap
     ethr =  1.90E-09,  avg # of iterations =  2.3

     total cpu time spent up to now is      216.8 secs

     total energy              =    -190.04307058 Ry
     estimated scf accuracy    <       0.00000003 Ry

     iteration #  5     ecut=   100.00 Ry     beta= 0.70
     Davidson diagonalization with overlap
     ethr =  8.50E-11,  avg # of iterations =  3.2

     total cpu time spent up to now is      228.1 secs

     total energy              =    -190.04307059 Ry
     estimated scf accuracy    <          4.8E-09 Ry

     iteration #  6     ecut=   100.00 Ry     beta= 0.70
     Davidson diagonalization with overlap
     ethr =  1.50E-11,  avg # of iterations =  3.0

     total cpu time spent up to now is      238.8 secs

     total energy              =    -190.04307060 Ry
     estimated scf accuracy    <          3.8E-09 Ry

     iteration #  7     ecut=   100.00 Ry     beta= 0.70
     Davidson diagonalization with overlap
     ethr =  1.19E-11,  avg # of iterations =  2.3

     total cpu time spent up to now is      246.7 secs

     End of self-consistent calculation

          k = 0.0000 0.0000 0.0000 (  4991 PWs)   bands (ev):

   -11.5264  -7.5560  -7.5560  -7.0865   0.2873   4.8616   4.9553   4.9553
     5.9531   6.4072   8.3840   8.3840   9.2764  10.8461  10.8461  11.7777
    18.5213  18.5677  20.6130  20.6130

          k = 0.0000 0.0000 0.1730 (  5015 PWs)   bands (ev):

   -11.3523  -7.4670  -7.4670  -7.0808   0.3565   5.0516   5.0955   5.0955
     5.4952   6.1582   7.8127   7.8127   8.7057  10.7075  10.7075  11.5953
    19.0880  19.5164  21.3678  21.3678

          k = 0.0000 0.0000 0.3460 (  5008 PWs)   bands (ev):

   -10.8458  -7.2290  -7.2290  -7.1408   0.5305   4.7029   5.3095   5.4943
     5.4943   5.6096   6.5624   6.5624   7.5858  10.2801  10.2801  11.0310
    20.0592  21.6423  22.2581  23.1051

          k = 0.0000 0.0000 0.5190 (  5028 PWs)   bands (ev):

   -10.0590  -7.4575  -6.9324  -6.9324   0.8142   3.9305   4.4082   5.3031
     5.3031   6.1188   6.1188   6.4961   6.5449   9.6250   9.6250  10.0921
    20.6189  23.0635  23.1851  24.8381

          k = 0.0000 0.0000 0.6920 (  5028 PWs)   bands (ev):

    -9.0989  -8.1516  -6.7203  -6.7203   1.4214   2.5067   4.5690   4.5690
     4.7953   5.5928   6.6908   6.6908   7.6340   8.8942   8.9958   8.9958
    21.3249  22.3807  24.4656  25.5199

          k = 0.0000 0.2522 0.0000 (  5009 PWs)   bands (ev):

   -11.1688  -8.7195  -7.3680  -6.6990   0.7536   3.6146   5.2211   6.0074
     6.2209   7.2862   7.8654   8.5504   9.2483   9.6036  10.7456  11.2925
    19.1951  19.3310  20.8605  20.8815

          k = 0.0000 0.2522 0.1730 (  5001 PWs)   bands (ev):

   -11.0000  -8.6041  -7.2919  -6.6919   0.8697   3.7218   4.8889   5.7133
     6.5670   6.5881   7.7882   8.0575   8.4650   9.8787  10.5937  11.2306
    19.7627  20.0836  21.5434  21.5723

          k = 0.0000 0.2522 0.3460 (  5015 PWs)   bands (ev):

   -10.5110  -8.2978  -7.0980  -6.7222   1.1515   3.9158   3.9491   5.2199
     5.7352   6.9285   6.9984   7.2356   7.6474   9.9249  10.1461  10.9210
    20.5038  22.0097  22.7403  23.1457

          k = 0.0000 0.2522 0.5190 (  5014 PWs)   bands (ev):

    -9.7612  -7.9713  -6.8907  -6.8709   1.3948   3.2946   3.4815   4.6461
     5.1443   5.6180   7.2537   7.3249   7.5290   9.5217   9.6830  10.3027
    20.9183  22.6987  22.8854  24.0710

          k = 0.0000 0.2522 0.6920 (  5004 PWs)   bands (ev):

    -8.8777  -8.1229  -6.9156  -6.8175   1.6423   2.2643   3.7380   4.2316
     4.6858   4.9237   7.2471   7.5632   8.2583   9.1273   9.1828   9.5675
    21.3152  21.9771  23.3011  23.7754

          k = 0.0000-0.5044 0.0000 (  4996 PWs)   bands (ev):

   -10.1570 -10.1570  -6.9352  -6.9352   1.9476   1.9476   6.9471   6.9471
     6.9621   6.9621   7.5073   7.5073   8.9396   8.9396  10.6735  10.6735
    20.2731  20.2731  21.2483  21.2483

          k = 0.0000-0.5044 0.1730 (  4996 PWs)   bands (ev):

   -10.0059 -10.0059  -6.8954  -6.8954   2.0874   2.0874   5.6326   5.6326
     7.1883   7.1883   7.8789   7.8789   8.7090   8.7090  10.5709  10.5709
    20.8894  20.8894  21.9364  21.9364

          k = 0.0000-0.5044 0.3460 (  5016 PWs)   bands (ev):

    -9.5769  -9.5769  -6.8223  -6.8223   2.4659   2.4659   4.0836   4.0836
     6.3903   6.3903   8.0934   8.0934   8.6839   8.6839  10.3073  10.3073
    21.7879  21.7879  23.1311  23.1311

          k = 0.0000-0.5044 0.5190 (  4998 PWs)   bands (ev):

    -8.9573  -8.9573  -6.8391  -6.8391   2.7785   2.7785   2.9453   2.9453
     5.3874   5.3874   7.8616   7.8616   8.9946   8.9946  10.0422  10.0422
    21.6855  21.6855  22.6776  22.6776

          k = 0.0000-0.5044 0.6920 (  5010 PWs)   bands (ev):

    -8.3742  -8.3742  -7.0143  -7.0143   2.1194   2.1194   3.1223   3.1223
     4.9371   4.9371   7.4667   7.4667   9.2999   9.2999   9.8742   9.8742
    21.2656  21.2656  22.5863  22.5863

          k = 0.2522 0.2522 0.0000 (  5011 PWs)   bands (ev):

   -10.8312  -8.8755  -7.7957  -6.8185   1.3542   3.7737   5.0165   6.4771
     6.5213   7.5082   7.8662   8.3029   9.0999   9.1647  10.2124  10.8959
    19.2603  20.0723  20.9360  21.6624

          k = 0.2522 0.2522 0.1730 (  5008 PWs)   bands (ev):

   -10.6681  -8.7605  -7.6988  -6.7939   1.4552   3.5450   5.1155   5.9901
     6.5303   6.7897   7.8214   8.0299   8.3076   9.6412  10.1746  10.9553
    19.8562  20.7291  21.4588  22.3336

          k = 0.2522 0.2522 0.3460 (  5002 PWs)   bands (ev):

   -10.1985  -8.4569  -7.4385  -6.7696   1.6375   2.8983   4.8539   5.1735
     5.9911   6.1752   6.9608   7.5747   8.3224   9.7427  10.0240  10.8420
    20.5501  21.9183  22.6537  23.6017

          k = 0.2522 0.2522 0.5190 (  5031 PWs)   bands (ev):

    -9.4901  -8.1181  -7.1107  -6.8550   1.3891   2.4602   3.8903   4.3814
     4.9720   6.3540   6.4871   8.0866   8.2792   9.5638   9.7002  10.4305
    20.5989  21.6057  23.5518  24.1938

          k = 0.2522 0.2522 0.6920 (  5013 PWs)   bands (ev):

    -8.6943  -8.1082  -7.0037  -6.8736   0.9697   2.1508   3.6872   3.8029
     4.1366   6.2971   6.7895   8.3743   8.7812   9.2719   9.2894   9.8759
    20.5555  21.1735  23.4972  23.8023

          k = 0.2522-0.5044 0.0000 (  5006 PWs)   bands (ev):

    -9.9065  -9.9065  -7.4266  -7.4266   2.6497   2.6497   6.3788   6.3788
     7.1567   7.1567   7.9752   7.9752   8.6480   8.6480  10.1824  10.1824
    20.0623  20.0623  21.8048  21.8048

          k = 0.2522-0.5044 0.1730 (  4998 PWs)   bands (ev):

    -9.7624  -9.7624  -7.3558  -7.3558   2.6359   2.6359   5.7771   5.7771
     6.9052   6.9052   7.9001   7.9001   8.6618   8.6618  10.2787  10.2787
    20.6096  20.6096  22.3820  22.3820

          k = 0.2522-0.5044 0.3460 (  5010 PWs)   bands (ev):

    -9.3577  -9.3577  -7.1846  -7.1846   2.3799   2.3799   4.8716   4.8716
     5.9029   5.9029   7.9511   7.9511   8.8772   8.8772  10.2974  10.2974
    21.1334  21.1334  23.6034  23.6034

          k = 0.2522-0.5044 0.5190 (  5028 PWs)   bands (ev):

    -8.7917  -8.7917  -7.0327  -7.0327   1.6674   1.6674   4.1428   4.1428
     5.2663   5.2663   8.0089   8.0089   9.1549   9.1549  10.1574  10.1574
    20.7098  20.7098  23.5998  23.5998

          k = 0.2522-0.5044 0.6920 (  5030 PWs)   bands (ev):

    -8.3004  -8.3004  -7.0145  -7.0145   1.0827   1.0827   3.4710   3.4710
     5.3654   5.3654   7.9532   7.9532   9.3629   9.3629  10.0241  10.0241
    20.2926  20.2926  23.1317  23.1317

          k =-0.5044-0.5044 0.0000 (  4996 PWs)   bands (ev):

    -9.5342  -9.5342  -8.0173  -8.0173   3.5692   3.5692   5.6284   5.6284
     7.5013   7.5013   8.2233   8.2233   8.7814   8.7814   9.2853   9.2853
    19.9715  19.9715  22.3999  22.3999

          k =-0.5044-0.5044 0.1730 (  4988 PWs)   bands (ev):

    -9.4032  -9.4032  -7.9138  -7.9138   3.2806   3.2806   5.6175   5.6175
     7.2272   7.2272   7.2932   7.2932   9.3665   9.3665   9.4386   9.4386
    20.4621  20.4621  22.9248  22.9248

          k =-0.5044-0.5044 0.3460 (  4988 PWs)   bands (ev):

    -9.0444  -9.0444  -7.6345  -7.6345   2.4189   2.4189   5.0417   5.0417
     6.5306   6.5306   7.0456   7.0456   9.5801   9.5801   9.8900   9.8900
    20.8423  20.8423  23.6790  23.6790

          k =-0.5044-0.5044 0.5190 (  5028 PWs)   bands (ev):

    -8.5757  -8.5757  -7.2795  -7.2795   1.3098   1.3098   3.8602   3.8602
     6.7039   6.7039   7.0447   7.0447   9.8389   9.8389  10.0306  10.0306
    20.2951  20.2951  23.4976  23.4976

          k =-0.5044-0.5044 0.6920 (  5036 PWs)   bands (ev):

    -8.2207  -8.2207  -7.0200  -7.0200   0.5384   0.5384   3.0874   3.0874
     6.9398   6.9398   7.1314   7.1314  10.0138  10.0138  10.0184  10.0184
    19.7680  19.7680  23.4026  23.4026

     the Fermi energy is    16.5984 ev

!    total energy              =    -190.04307060 Ry
     estimated scf accuracy    <          2.6E-10 Ry
     smearing contrib. (-TS)   =       0.00000000 Ry
     internal energy E=F+TS    =    -190.04307060 Ry

     The total energy is F=E-TS. E is the sum of the following terms:
     one-electron contribution =      -7.91555506 Ry
     hartree contribution      =      30.44810680 Ry
     xc contribution           =     -43.53916420 Ry
     ewald contribution        =    -131.05627271 Ry
     one-center paw contrib.   =     -37.98018542 Ry

     convergence has been achieved in   7 iterations

     Forces acting on atoms (cartesian axes, Ry/au):

     atom    1 type  1   force =     0.00000000    0.00000000   -0.00000000
     atom    2 type  1   force =     0.00000000    0.00000000    0.00000000
     atom    3 type  2   force =     0.00020618    0.00020618    0.00000000
     atom    4 type  2   force =    -0.00020618   -0.00020618   -0.00000000
     atom    5 type  2   force =    -0.00020618    0.00020618    0.00000000
     atom    6 type  2   force =     0.00020618   -0.00020618   -0.00000000

     Total force =     0.000583     Total SCF correction =     0.000013


     Computing stress (Cartesian axis) and pressure

          total   stress  (Ry/bohr**3)                   (kbar)     P=      363.18
   0.00247615   0.00000000   0.00000000          364.25        0.00        0.00
   0.00000000   0.00247615   0.00000000            0.00      364.25        0.00
   0.00000000   0.00000000   0.00245433            0.00        0.00      361.04

     Energy error            =      3.8E-05 Ry
     Gradient error          =      2.1E-04 Ry/Bohr
     Cell gradient error     =      2.6E+01 kbar

     number of scf cycles    =   3
     number of bfgs steps    =   2

     enthalpy           old  =    -189.3679924882 Ry
     enthalpy           new  =    -189.3680308053 Ry

     CASE: enthalpy          _new < enthalpy          _old

     new trust radius        =       0.0083642448 bohr
     new conv_thr            =            1.0E-10 Ry

     new unit-cell volume =    295.26947 a.u.^3 (    43.75442 Ang^3 )
     density =      4.56046 g/cm^3

CELL_PARAMETERS (angstrom)
   4.074050954   0.000000000   0.000000000
   0.000000000   4.074050954   0.000000000
   0.000000000   0.000000000   2.636143437

ATOMIC_POSITIONS (angstrom)
Si               0.0000000000        0.0000000000       -0.0000000000
Si               2.0370254768        2.0370254768        1.3180717186
O                1.2359295590        1.2359295590        0.0000000000
O                2.8381213946        2.8381213946       -0.0000000000
O                0.8010959178        3.2729550358        1.3180717186
O                3.2729550358        0.8010959178        1.3180717186



     Writing config-only to output data dir ./SiO2.save/ :
     XML data file
     NEW-OLD atomic charge density approx. for the potential
     New effective cutoffs (rho, wfc):  404.62  101.23

     Check: negative core charge=   -0.000002

     total cpu time spent up to now is      256.3 secs

     Self-consistent Calculation

     iteration #  1     ecut=   100.00 Ry     beta= 0.70
     Davidson diagonalization with overlap
     ethr =  1.00E-06,  avg # of iterations =  3.1

     Threshold (ethr) on eigenvalues was too large:
     Diagonalizing with lowered threshold

     Davidson diagonalization with overlap
     ethr =  3.61E-08,  avg # of iterations =  2.9

     total cpu time spent up to now is      277.8 secs

     total energy              =    -190.04735302 Ry
     estimated scf accuracy    <       0.00001392 Ry

     iteration #  2     ecut=   100.00 Ry     beta= 0.70
     Davidson diagonalization with overlap
     ethr =  4.35E-08,  avg # of iterations =  3.0

     total cpu time spent up to now is      288.6 secs

     total energy              =    -190.04735747 Ry
     estimated scf accuracy    <       0.00000795 Ry

     iteration #  3     ecut=   100.00 Ry     beta= 0.70
     Davidson diagonalization with overlap
     ethr =  2.48E-08,  avg # of iterations =  2.0

     total cpu time spent up to now is      294.8 secs

     total energy              =    -190.04735727 Ry
     estimated scf accuracy    <       0.00000043 Ry

     iteration #  4     ecut=   100.00 Ry     beta= 0.70
     Davidson diagonalization with overlap
     ethr =  1.35E-09,  avg # of iterations =  2.7

     total cpu time spent up to now is      304.8 secs

     total energy              =    -190.04735749 Ry
     estimated scf accuracy    <       0.00000003 Ry

     iteration #  5     ecut=   100.00 Ry     beta= 0.70
     Davidson diagonalization with overlap
     ethr =  9.35E-11,  avg # of iterations =  2.0

     total cpu time spent up to now is      313.8 secs

     total energy              =    -190.04735750 Ry
     estimated scf accuracy    <          3.1E-10 Ry

     iteration #  6     ecut=   100.00 Ry     beta= 0.70
     Davidson diagonalization with overlap
     ethr =  9.72E-13,  avg # of iterations =  4.7

     total cpu time spent up to now is      326.3 secs

     total energy              =    -190.04735750 Ry
     estimated scf accuracy    <          1.3E-10 Ry

     iteration #  7     ecut=   100.00 Ry     beta= 0.70
     Davidson diagonalization with overlap
     ethr =  4.13E-13,  avg # of iterations =  2.1

     total cpu time spent up to now is      334.9 secs

     End of self-consistent calculation

          k = 0.0000 0.0000 0.0000 (  4991 PWs)   bands (ev):

   -11.5665  -7.6290  -7.6290  -7.1756   0.2292   4.8133   4.8810   4.8810
     5.8857   6.3259   8.3002   8.3002   9.1717  10.7428  10.7428  11.6702
    18.3069  18.4562  20.4753  20.4753

          k = 0.0000 0.0000 0.1728 (  5015 PWs)   bands (ev):

   -11.3934  -7.5405  -7.5405  -7.1688   0.2981   5.0024   5.0209   5.0209
     5.4278   6.0784   7.7303   7.7303   8.5993  10.6058  10.6058  11.4908
    18.8752  19.3992  21.2268  21.2268

          k = 0.0000 0.0000 0.3456 (  5008 PWs)   bands (ev):

   -10.8896  -7.3039  -7.3039  -7.2250   0.4709   4.6343   5.2302   5.4188
     5.4188   5.5577   6.4836   6.4836   7.4828  10.1826  10.1826  10.9349
    19.8560  21.5034  22.1173  22.9551

          k = 0.0000 0.0000 0.5184 (  5028 PWs)   bands (ev):

   -10.1076  -7.5337  -7.0090  -7.0090   0.7502   3.8498   4.3363   5.2291
     5.2291   6.0409   6.0409   6.4394   6.4524   9.5328   9.5328  10.0075
    20.4319  22.8731  23.0192  24.6739

          k = 0.0000 0.0000 0.6912 (  5028 PWs)   bands (ev):

    -9.1547  -8.2171  -6.7984  -6.7984   1.3499   2.4287   4.4976   4.4976
     4.7187   5.5097   6.6112   6.6112   7.5703   8.8211   8.9079   8.9079
    21.1361  22.1820  24.2949  25.3629

          k = 0.0000 0.2516 0.0000 (  5009 PWs)   bands (ev):

   -11.2119  -8.7844  -7.4433  -6.7865   0.6939   3.5447   5.1535   5.9401
     6.1515   7.2040   7.7836   8.4642   9.1483   9.5044  10.6425  11.1876
    19.0754  19.1249  20.7154  20.7394

          k = 0.0000 0.2516 0.1728 (  5001 PWs)   bands (ev):

   -11.0440  -8.6697  -7.3676  -6.7785   0.8091   3.6519   4.8198   5.6541
     6.4871   6.5117   7.7049   7.9725   8.3679   9.7786  10.4924  11.1272
    19.5555  19.9581  21.4000  21.4234

          k = 0.0000 0.2516 0.3456 (  5015 PWs)   bands (ev):

   -10.5577  -8.3657  -7.1745  -6.8053   1.0880   3.8480   3.8845   5.1384
     5.6722   6.8409   6.9161   7.1571   7.5626   9.8261  10.0493  10.8224
    20.2995  21.8589  22.5919  22.9833

          k = 0.0000 0.2516 0.5184 (  5014 PWs)   bands (ev):

    -9.8127  -8.0421  -6.9679  -6.9474   1.3264   3.2259   3.4175   4.5642
     5.0746   5.5366   7.1756   7.2423   7.4551   9.4300   9.5869  10.2115
    20.7274  22.5120  22.7151  23.8818

          k = 0.0000 0.2516 0.6912 (  5004 PWs)   bands (ev):

    -8.9363  -8.1905  -6.9895  -6.8939   1.5702   2.1924   3.6700   4.1559
     4.6146   4.8491   7.1697   7.4813   8.1812   9.0385   9.0937   9.4802
    21.1312  21.7925  23.1162  23.5856

          k = 0.0000-0.5031 0.0000 (  4996 PWs)   bands (ev):

   -10.2087 -10.2087  -7.0167  -7.0167   1.8840   1.8840   6.8720   6.8720
     6.8754   6.8754   7.4331   7.4331   8.8471   8.8471  10.5702  10.5702
    20.1050  20.1050  21.1017  21.1017

          k = 0.0000-0.5031 0.1728 (  4996 PWs)   bands (ev):

   -10.0585 -10.0585  -6.9768  -6.9768   2.0233   2.0233   5.5577   5.5577
     7.1111   7.1111   7.7965   7.7965   8.6161   8.6161  10.4692  10.4692
    20.7079  20.7079  21.7929  21.7929

          k = 0.0000-0.5031 0.3456 (  5016 PWs)   bands (ev):

    -9.6322  -9.6322  -6.9027  -6.9027   2.4004   2.4004   4.0129   4.0129
     6.3137   6.3137   8.0110   8.0110   8.5910   8.5910  10.2093  10.2093
    21.5856  21.5856  22.9681  22.9681

          k = 0.0000-0.5031 0.5184 (  4998 PWs)   bands (ev):

    -9.0170  -9.0170  -6.9165  -6.9165   2.7020   2.7020   2.8855   2.8855
     5.3122   5.3122   7.7825   7.7825   8.9015   8.9015   9.9474   9.9474
    21.5043  21.5043  22.4991  22.4991

          k = 0.0000-0.5031 0.6912 (  5010 PWs)   bands (ev):

    -8.4399  -8.4399  -7.0863  -7.0863   2.0451   2.0451   3.0601   3.0601
     4.8613   4.8613   7.3920   7.3920   9.2053   9.2053   9.7818   9.7818
    21.0999  21.0999  22.3975  22.3975

          k = 0.2516 0.2516 0.0000 (  5011 PWs)   bands (ev):

   -10.8773  -8.9412  -7.8637  -6.9021   1.2896   3.6993   4.9416   6.4054
     6.4559   7.4236   7.7814   8.2206   9.0037   9.0678  10.1146  10.7952
    19.1025  19.9034  20.7829  21.5168

          k = 0.2516 0.2516 0.1728 (  5008 PWs)   bands (ev):

   -10.7151  -8.8269  -7.7675  -6.8771   1.3901   3.4746   5.0413   5.9168
     6.4635   6.7045   7.7416   7.9422   8.2195   9.5401  10.0775  10.8540
    19.6775  20.5659  21.3110  22.1855

          k = 0.2516 0.2516 0.3456 (  5002 PWs)   bands (ev):

   -10.2481  -8.5251  -7.5090  -6.8508   1.5707   2.8364   4.7778   5.1057
     5.9064   6.0987   6.8751   7.5009   8.2365   9.6410   9.9290  10.7419
    20.3540  21.7409  22.5040  23.4532

          k = 0.2516 0.2516 0.5184 (  5031 PWs)   bands (ev):

    -9.5445  -8.1886  -7.1837  -6.9317   1.3237   2.3986   3.8125   4.3201
     4.8967   6.2731   6.3995   8.0113   8.1935   9.4640   9.6080  10.3351
    20.4138  21.4236  23.3618  24.0560

          k = 0.2516 0.2516 0.6912 (  5013 PWs)   bands (ev):

    -8.7555  -8.1771  -7.0761  -6.9487   0.9081   2.0790   3.6289   3.7286
     4.0684   6.2113   6.7081   8.2868   8.6997   9.1745   9.2015   9.7863
    20.3762  20.9923  23.2956  23.6747

          k = 0.2516-0.5031 0.0000 (  5006 PWs)   bands (ev):

    -9.9613  -9.9613  -7.5002  -7.5002   2.5785   2.5785   6.2921   6.2921
     7.0789   7.0789   7.8980   7.8980   8.5596   8.5596  10.0854  10.0854
    19.8926  19.8926  21.6554  21.6554

          k = 0.2516-0.5031 0.1728 (  4998 PWs)   bands (ev):

    -9.8180  -9.8180  -7.4297  -7.4297   2.5659   2.5659   5.6965   5.6965
     6.8288   6.8288   7.8152   7.8152   8.5750   8.5750  10.1807  10.1807
    20.4301  20.4301  22.2348  22.2348

          k = 0.2516-0.5031 0.3456 (  5010 PWs)   bands (ev):

    -9.4158  -9.4158  -7.2591  -7.2591   2.3143   2.3143   4.7947   4.7947
     5.8302   5.8302   7.8607   7.8607   8.7900   8.7900  10.1987  10.1987
    20.9428  20.9428  23.4584  23.4584

          k = 0.2516-0.5031 0.5184 (  5028 PWs)   bands (ev):

    -8.8541  -8.8541  -7.1070  -7.1070   1.6055   1.6055   4.0771   4.0771
     5.1870   5.1870   7.9196   7.9196   9.0647   9.0647  10.0596  10.0596
    20.5277  20.5277  23.4469  23.4469

          k = 0.2516-0.5031 0.6912 (  5030 PWs)   bands (ev):

    -8.3676  -8.3676  -7.0867  -7.0867   1.0212   1.0212   3.4126   3.4126
     5.2825   5.2825   7.8663   7.8663   9.2690   9.2690   9.9286   9.9286
    20.1146  20.1146  22.9825  22.9825

          k =-0.5031-0.5031 0.0000 (  4996 PWs)   bands (ev):

    -9.5948  -9.5948  -8.0810  -8.0810   3.4901   3.4901   5.5422   5.5422
     7.4174   7.4174   8.1425   8.1425   8.6999   8.6999   9.1965   9.1965
    19.7994  19.7994  22.2442  22.2442

          k =-0.5031-0.5031 0.1728 (  4988 PWs)   bands (ev):

    -9.4645  -9.4645  -7.9783  -7.9783   3.2050   3.2050   5.5342   5.5342
     7.1514   7.1514   7.2062   7.2062   9.2773   9.2773   9.3497   9.3497
    20.2825  20.2825  22.7677  22.7677

          k =-0.5031-0.5031 0.3456 (  4988 PWs)   bands (ev):

    -9.1078  -9.1078  -7.7011  -7.7011   2.3510   2.3510   4.9750   4.9750
     6.4471   6.4471   6.9532   6.9532   9.4901   9.4901   9.7943   9.7943
    20.6535  20.6535  23.5311  23.5311

          k =-0.5031-0.5031 0.5184 (  5028 PWs)   bands (ev):

    -8.6421  -8.6421  -7.3492  -7.3492   1.2488   1.2488   3.8035   3.8035
     6.6189   6.6189   6.9491   6.9491   9.7478   9.7478   9.9297   9.9297
    20.1116  20.1116  23.3626  23.3626

          k =-0.5031-0.5031 0.6912 (  5036 PWs)   bands (ev):

    -8.2897  -8.2897  -7.0921  -7.0921   0.4816   0.4816   3.0355   3.0355
     6.8561   6.8561   7.0348   7.0348   9.9097   9.9097   9.9264   9.9264
    19.5881  19.5881  23.2585  23.2585

     the Fermi energy is    16.4707 ev

!    total energy              =    -190.04735750 Ry
     estimated scf accuracy    <          4.8E-12 Ry
     smearing contrib. (-TS)   =       0.00000000 Ry
     internal energy E=F+TS    =    -190.04735750 Ry

     The total energy is F=E-TS. E is the sum of the following terms:
     one-electron contribution =      -8.32939121 Ry
     hartree contribution      =      30.54555305 Ry
     xc contribution           =     -43.50866358 Ry
     ewald contribution        =    -130.77357531 Ry
     one-center paw contrib.   =     -37.98128046 Ry

     convergence has been achieved in   7 iterations

     Forces acting on atoms (cartesian axes, Ry/au):

     atom    1 type  1   force =     0.00000000    0.00000000    0.00000000
     atom    2 type  1   force =     0.00000000    0.00000000    0.00000000
     atom    3 type  2   force =     0.00014626    0.00014626    0.00000000
     atom    4 type  2   force =    -0.00014626   -0.00014626   -0.00000000
     atom    5 type  2   force =    -0.00014626    0.00014626   -0.00000000
     atom    6 type  2   force =     0.00014626   -0.00014626    0.00000000

     Total force =     0.000414     Total SCF correction =     0.000002


     Computing stress (Cartesian axis) and pressure

          total   stress  (Ry/bohr**3)                   (kbar)     P=      337.42
   0.00229460   0.00000000   0.00000000          337.55        0.00        0.00
   0.00000000   0.00229460   0.00000000            0.00      337.55        0.00
   0.00000000   0.00000000   0.00229209            0.00        0.00      337.18

     Energy error            =      1.5E-04 Ry
     Gradient error          =      1.5E-04 Ry/Bohr
     Cell gradient error     =      1.2E+00 kbar

     number of scf cycles    =   4
     number of bfgs steps    =   3

     enthalpy           old  =    -189.3680308053 Ry
     enthalpy           new  =    -189.3681808699 Ry

     CASE: enthalpy          _new < enthalpy          _old

     new trust radius        =       0.0003763456 bohr
     new conv_thr            =            1.0E-10 Ry

     new unit-cell volume =    295.21304 a.u.^3 (    43.74606 Ang^3 )
     density =      4.56133 g/cm^3

CELL_PARAMETERS (angstrom)
   4.073884699   0.000000000   0.000000000
   0.000000000   4.073884699   0.000000000
   0.000000000   0.000000000   2.635854757

ATOMIC_POSITIONS (angstrom)
Si               0.0000000000        0.0000000000       -0.0000000000
Si               2.0369423496        2.0369423496        1.3179273787
O                1.2359673840        1.2359673840        0.0000000000
O                2.8379173152        2.8379173152       -0.0000000000
O                0.8009749656        3.2729097336        1.3179273787
O                3.2729097336        0.8009749656        1.3179273787



     Writing config-only to output data dir ./SiO2.save/ :
     XML data file
     NEW-OLD atomic charge density approx. for the potential
     New effective cutoffs (rho, wfc):  404.66  101.24

     Check: negative core charge=   -0.000002

     total cpu time spent up to now is      345.6 secs

     Self-consistent Calculation

     iteration #  1     ecut=   100.00 Ry     beta= 0.70
     Davidson diagonalization with overlap
     ethr =  1.00E-06,  avg # of iterations =  2.0

     Threshold (ethr) on eigenvalues was too large:
     Diagonalizing with lowered threshold

     Davidson diagonalization with overlap
     ethr =  1.30E-10,  avg # of iterations =  4.5

     total cpu time spent up to now is      367.3 secs

     total energy              =    -190.04722796 Ry
     estimated scf accuracy    <       0.00000009 Ry

     iteration #  2     ecut=   100.00 Ry     beta= 0.70
     Davidson diagonalization with overlap
     ethr =  2.95E-10,  avg # of iterations =  2.0

     total cpu time spent up to now is      376.9 secs

     total energy              =    -190.04722798 Ry
     estimated scf accuracy    <          8.6E-09 Ry

     iteration #  3     ecut=   100.00 Ry     beta= 0.70
     Davidson diagonalization with overlap
     ethr =  2.70E-11,  avg # of iterations =  2.0

     total cpu time spent up to now is      386.6 secs

     total energy              =    -190.04722798 Ry
     estimated scf accuracy    <          3.6E-10 Ry

     iteration #  4     ecut=   100.00 Ry     beta= 0.70
     Davidson diagonalization with overlap
     ethr =  1.12E-12,  avg # of iterations =  2.3

     total cpu time spent up to now is      394.1 secs

     End of self-consistent calculation

          k = 0.0000 0.0000 0.0000 (  4991 PWs)   bands (ev):

   -11.5658  -7.6269  -7.6269  -7.1750   0.2324   4.8150   4.8831   4.8831
     5.8883   6.3272   8.3027   8.3027   9.1737  10.7458  10.7458  11.6731
    18.3145  18.4603  20.4814  20.4814

          k = 0.0000 0.0000 0.1728 (  5015 PWs)   bands (ev):

   -11.3926  -7.5384  -7.5384  -7.1681   0.3013   5.0042   5.0230   5.0230
     5.4301   6.0798   7.7327   7.7327   8.6014  10.6087  10.6087  11.4938
    18.8828  19.4037  21.2330  21.2330

          k = 0.0000 0.0000 0.3456 (  5008 PWs)   bands (ev):

   -10.8887  -7.3016  -7.3016  -7.2240   0.4738   4.6361   5.2316   5.4211
     5.4211   5.5596   6.4857   6.4857   7.4850  10.1854  10.1854  10.9379
    19.8637  21.5087  22.1220  22.9614

          k = 0.0000 0.0000 0.5185 (  5028 PWs)   bands (ev):

   -10.1065  -7.5324  -7.0066  -7.0066   0.7525   3.8512   4.3381   5.2307
     5.2307   6.0437   6.0437   6.4415   6.4548   9.5354   9.5354  10.0104
    20.4385  22.8794  23.0244  24.6795

          k = 0.0000 0.0000 0.6913 (  5028 PWs)   bands (ev):

    -9.1534  -8.2157  -6.7958  -6.7958   1.3515   2.4300   4.4989   4.4989
     4.7209   5.5121   6.6143   6.6143   7.5728   8.8239   8.9100   8.9100
    21.1422  22.1881  24.3004  25.3682

          k = 0.0000 0.2516 0.0000 (  5009 PWs)   bands (ev):

   -11.2111  -8.7832  -7.4413  -6.7849   0.6965   3.5463   5.1554   5.9427
     6.1540   7.2065   7.7860   8.4666   9.1504   9.5073  10.6453  11.1903
    19.0796  19.1322  20.7215  20.7448

          k = 0.0000 0.2516 0.1728 (  5001 PWs)   bands (ev):

   -11.0432  -8.6685  -7.3655  -6.7768   0.8118   3.6536   4.8220   5.6562
     6.4896   6.5143   7.7071   7.9748   8.3703   9.7813  10.4952  11.1299
    19.5629  19.9627  21.4055  21.4297

          k = 0.0000 0.2516 0.3456 (  5015 PWs)   bands (ev):

   -10.5568  -8.3643  -7.1723  -6.8034   1.0907   3.8495   3.8863   5.1409
     5.6741   6.8428   6.9189   7.1591   7.5651   9.8287  10.0519  10.8252
    20.3069  21.8645  22.5982  22.9891

          k = 0.0000 0.2516 0.5185 (  5014 PWs)   bands (ev):

    -9.8115  -8.0407  -6.9655  -6.9451   1.3288   3.2273   3.4193   4.5667
     5.0762   5.5382   7.1781   7.2448   7.4576   9.4323   9.5893  10.2143
    20.7342  22.5183  22.7207  23.8863

          k = 0.0000 0.2516 0.6913 (  5004 PWs)   bands (ev):

    -8.9350  -8.1891  -6.9869  -6.8914   1.5718   2.1937   3.6722   4.1582
     4.6161   4.8508   7.1725   7.4844   8.1835   9.0409   9.0958   9.4828
    21.1373  21.7985  23.1212  23.5900

          k = 0.0000-0.5032 0.0000 (  4996 PWs)   bands (ev):

   -10.2078 -10.2078  -7.0147  -7.0147   1.8858   1.8858   6.8745   6.8745
     6.8784   6.8784   7.4357   7.4357   8.8494   8.8494  10.5727  10.5727
    20.1107  20.1107  21.1075  21.1075

          k = 0.0000-0.5032 0.1728 (  4996 PWs)   bands (ev):

   -10.0576 -10.0576  -6.9748  -6.9748   2.0252   2.0252   5.5603   5.5603
     7.1134   7.1134   7.7995   7.7995   8.6183   8.6183  10.4716  10.4716
    20.7142  20.7142  21.7987  21.7987

          k = 0.0000-0.5032 0.3456 (  5016 PWs)   bands (ev):

    -9.6311  -9.6311  -6.9005  -6.9005   2.4025   2.4025   4.0150   4.0150
     6.3158   6.3158   8.0139   8.0139   8.5932   8.5932  10.2117  10.2117
    21.5926  21.5926  22.9730  22.9730

          k = 0.0000-0.5032 0.5185 (  4998 PWs)   bands (ev):

    -9.0158  -9.0158  -6.9141  -6.9141   2.7040   2.7040   2.8874   2.8874
     5.3139   5.3139   7.7853   7.7853   8.9038   8.9038   9.9499   9.9499
    21.5107  21.5107  22.5039  22.5039

          k = 0.0000-0.5032 0.6913 (  5010 PWs)   bands (ev):

    -8.4385  -8.4385  -7.0838  -7.0838   2.0466   2.0466   3.0625   3.0625
     4.8627   4.8627   7.3947   7.3947   9.2076   9.2076   9.7843   9.7843
    21.1057  21.1057  22.4024  22.4024

          k = 0.2516 0.2516 0.0000 (  5011 PWs)   bands (ev):

   -10.8765  -8.9402  -7.8617  -6.9003   1.2920   3.7014   4.9434   6.4079
     6.4584   7.4266   7.7838   8.2231   9.0059   9.0704  10.1173  10.7981
    19.1079  19.9091  20.7881  21.5228

          k = 0.2516 0.2516 0.1728 (  5008 PWs)   bands (ev):

   -10.7142  -8.8259  -7.7654  -6.8752   1.3926   3.4767   5.0431   5.9190
     6.4661   6.7073   7.7439   7.9445   8.2223   9.5424  10.0803  10.8569
    19.6839  20.5716  21.3162  22.1917

          k = 0.2516 0.2516 0.3456 (  5002 PWs)   bands (ev):

   -10.2471  -8.5240  -7.5068  -6.8486   1.5734   2.8383   4.7796   5.1074
     5.9089   6.1015   6.8770   7.5031   8.2393   9.6431   9.9317  10.7447
    20.3612  21.7477  22.5094  23.4578

          k = 0.2516 0.2516 0.5185 (  5031 PWs)   bands (ev):

    -9.5433  -8.1873  -7.1813  -6.9293   1.3259   2.4007   3.8141   4.3218
     4.8988   6.2759   6.4011   8.0137   8.1964   9.4660   9.6105  10.3378
    20.4206  21.4299  23.3674  24.0593

          k = 0.2516 0.2516 0.6913 (  5013 PWs)   bands (ev):

    -8.7541  -8.1758  -7.0736  -6.9461   0.9097   2.0809   3.6303   3.7305
     4.0703   6.2129   6.7112   8.2898   8.7021   9.1763   9.2038   9.7889
    20.3827  20.9981  23.3006  23.6781

          k = 0.2516-0.5032 0.0000 (  5006 PWs)   bands (ev):

    -9.9604  -9.9604  -7.4983  -7.4983   2.5806   2.5806   6.2946   6.2946
     7.0814   7.0814   7.9009   7.9009   8.5620   8.5620  10.0881  10.0881
    19.8980  19.8980  21.6609  21.6609

          k = 0.2516-0.5032 0.1728 (  4998 PWs)   bands (ev):

    -9.8171  -9.8171  -7.4278  -7.4278   2.5681   2.5681   5.6989   5.6989
     6.8311   6.8311   7.8180   7.8180   8.5773   8.5773  10.1834  10.1834
    20.4360  20.4360  22.2403  22.2403

          k = 0.2516-0.5032 0.3456 (  5010 PWs)   bands (ev):

    -9.4148  -9.4148  -7.2570  -7.2570   2.3166   2.3166   4.7967   4.7967
     5.8324   5.8324   7.8632   7.8632   8.7923   8.7923  10.2012  10.2012
    20.9497  20.9497  23.4639  23.4639

          k = 0.2516-0.5032 0.5185 (  5028 PWs)   bands (ev):

    -8.8528  -8.8528  -7.1047  -7.1047   1.6076   1.6076   4.0789   4.0789
     5.1889   5.1889   7.9222   7.9222   9.0670   9.0670  10.0620  10.0620
    20.5344  20.5344  23.4512  23.4512

          k = 0.2516-0.5032 0.6913 (  5030 PWs)   bands (ev):

    -8.3662  -8.3662  -7.0842  -7.0842   1.0230   1.0230   3.4142   3.4142
     5.2845   5.2845   7.8690   7.8690   9.2711   9.2711   9.9310   9.9310
    20.1211  20.1211  22.9864  22.9864

          k =-0.5032-0.5032 0.0000 (  4996 PWs)   bands (ev):

    -9.5941  -9.5941  -8.0791  -8.0791   3.4927   3.4927   5.5440   5.5440
     7.4198   7.4198   8.1450   8.1450   8.7037   8.7037   9.1987   9.1987
    19.8045  19.8045  22.2495  22.2495

          k =-0.5032-0.5032 0.1728 (  4988 PWs)   bands (ev):

    -9.4636  -9.4636  -7.9764  -7.9764   3.2077   3.2077   5.5360   5.5360
     7.1544   7.1544   7.2083   7.2083   9.2796   9.2796   9.3528   9.3528
    20.2883  20.2883  22.7731  22.7731

          k =-0.5032-0.5032 0.3456 (  4988 PWs)   bands (ev):

    -9.1068  -9.1068  -7.6990  -7.6990   2.3535   2.3535   4.9768   4.9768
     6.4500   6.4500   6.9549   6.9549   9.4925   9.4925   9.7969   9.7969
    20.6605  20.6605  23.5362  23.5362

          k =-0.5032-0.5032 0.5185 (  5028 PWs)   bands (ev):

    -8.6409  -8.6409  -7.3469  -7.3469   1.2509   1.2509   3.8052   3.8052
     6.6218   6.6218   6.9507   6.9507   9.7503   9.7503   9.9319   9.9319
    20.1187  20.1187  23.3668  23.3668

          k =-0.5032-0.5032 0.6913 (  5036 PWs)   bands (ev):

    -8.2883  -8.2883  -7.0897  -7.0897   0.4835   0.4835   3.0369   3.0369
     6.8592   6.8592   7.0363   7.0363   9.9115   9.9115   9.9291   9.9291
    19.5952  19.5952  23.2623  23.2623

     the Fermi energy is    16.4748 ev

!    total energy              =    -190.04722798 Ry
     estimated scf accuracy    <          6.2E-11 Ry
     smearing contrib. (-TS)   =       0.00000000 Ry
     internal energy E=F+TS    =    -190.04722798 Ry

     The total energy is F=E-TS. E is the sum of the following terms:
     one-electron contribution =      -8.31988114 Ry
     hartree contribution      =      30.54402008 Ry
     xc contribution           =     -43.50981310 Ry
     ewald contribution        =    -130.78030751 Ry
     one-center paw contrib.   =     -37.98124630 Ry

     convergence has been achieved in   4 iterations

     Forces acting on atoms (cartesian axes, Ry/au):

     atom    1 type  1   force =     0.00000000    0.00000000   -0.00000000
     atom    2 type  1   force =     0.00000000    0.00000000    0.00000000
     atom    3 type  2   force =    -0.00001658   -0.00001658   -0.00000000
     atom    4 type  2   force =     0.00001658    0.00001658   -0.00000000
     atom    5 type  2   force =     0.00001658   -0.00001658    0.00000000
     atom    6 type  2   force =    -0.00001658    0.00001658    0.00000000

     Total force =     0.000047     Total SCF correction =     0.000008
     SCF correction compared to forces is large: reduce conv_thr to get better values


     Computing stress (Cartesian axis) and pressure

          total   stress  (Ry/bohr**3)                   (kbar)     P=      338.40
   0.00230025   0.00000000   0.00000000          338.38        0.00        0.00
   0.00000000   0.00230025   0.00000000            0.00      338.38        0.00
   0.00000000   0.00000000   0.00230065            0.00        0.00      338.44

     Energy error            =      2.8E-07 Ry
     Gradient error          =      1.7E-05 Ry/Bohr
     Cell gradient error     =      6.8E-02 kbar

     bfgs converged in   5 scf cycles and   4 bfgs steps
     (criteria: energy <  1.0E-04 Ry, force <  1.0E-03 Ry/Bohr, cell <  5.0E-01 kbar)

     End of BFGS Geometry Optimization

     Final enthalpy           =    -189.3681811460 Ry

     File ./SiO2.bfgs deleted, as requested
Begin final coordinates
     new unit-cell volume =    295.21304 a.u.^3 (    43.74606 Ang^3 )
     density =      4.56133 g/cm^3

CELL_PARAMETERS (angstrom)
   4.073884699   0.000000000   0.000000000
   0.000000000   4.073884699   0.000000000
   0.000000000   0.000000000   2.635854757

ATOMIC_POSITIONS (angstrom)
Si               0.0000000000        0.0000000000       -0.0000000000
Si               2.0369423496        2.0369423496        1.3179273787
O                1.2359673840        1.2359673840        0.0000000000
O                2.8379173152        2.8379173152       -0.0000000000
O                0.8009749656        3.2729097336        1.3179273787
O                3.2729097336        0.8009749656        1.3179273787
End final coordinates



     Writing config-only to output data dir ./SiO2.save/ :
     XML data file

     Final scf calculation at the relaxed structure.
     The G-vectors are recalculated for the final unit cell
     Results may differ from those at the preceding step.

     G-vector sticks info
     --------------------
     sticks:   dense  smooth     PW     G-vecs:    dense   smooth      PW
     Sum        1885    1885    553                39803    39803    6321

     Using Slab Decomposition



     bravais-lattice index     =            0
     lattice parameter (alat)  =       7.7473  a.u.
     unit-cell volume          =     295.2130 (a.u.)^3
     number of atoms/cell      =            6
     number of atomic types    =            2
     number of electrons       =        32.00
     number of Kohn-Sham states=           20
     kinetic-energy cutoff     =     100.0000  Ry
     charge density cutoff     =     400.0000  Ry
     scf convergence threshold =      1.0E-10
     mixing beta               =       0.7000
     number of iterations used =            8  plain     mixing
     press convergence thresh. =      5.0E-01
     Exchange-correlation= SLA  PW   PBX  PBC
                           (   1   4   3   4   0   0   0)

     celldm(1)=   7.747310  celldm(2)=   0.000000  celldm(3)=   0.000000
     celldm(4)=   0.000000  celldm(5)=   0.000000  celldm(6)=   0.000000

     crystal axes: (cart. coord. in units of alat)
               a(1) = (   0.993703   0.000000   0.000000 )  
               a(2) = (   0.000000   0.993703   0.000000 )  
               a(3) = (   0.000000   0.000000   0.642938 )  

     reciprocal axes: (cart. coord. in units 2 pi/alat)
               b(1) = (  1.006337  0.000000  0.000000 )  
               b(2) = (  0.000000  1.006337  0.000000 )  
               b(3) = (  0.000000  0.000000  1.555359 )  


     PseudoPot. # 1 for Si read from file:
     /home/yluo/ASE/05b_ev/ase/src/Si.pbe-n-rrkjus_psl.1.0.0.UPF
     MD5 check sum: 0b0bb1205258b0d07b9f9672cf965d36
     Pseudo is Ultrasoft + core correction, Zval =  4.0
     Generated using "atomic" code by A. Dal Corso  v.5.1
     Using radial grid of 1141 points,  6 beta functions with: 
                l(1) =   0
                l(2) =   0
                l(3) =   1
                l(4) =   1
                l(5) =   2
                l(6) =   2
     Q(r) pseudized with 0 coefficients 


     PseudoPot. # 2 for O  read from file:
     /home/yluo/ASE/05b_ev/ase/src/O.pbe-n-kjpaw_psl.0.1.UPF
     MD5 check sum: 0234752ac141de4415c5fc33072bef88
     Pseudo is Projector augmented-wave + core cor, Zval =  6.0
     Generated using "atomic" code by A. Dal Corso  v.5.0.99 svn rev. 10869
     Shape of augmentation charge: BESSEL
     Using radial grid of 1095 points,  4 beta functions with: 
                l(1) =   0
                l(2) =   0
                l(3) =   1
                l(4) =   1
     Q(r) pseudized with 0 coefficients 


     atomic species   valence    mass     pseudopotential
     Si                4.00    28.08500     Si( 1.00)
     O                 6.00    15.99900     O ( 1.00)

     16 Sym. Ops., with inversion, found ( 8 have fractional translation)



   Cartesian axes

     site n.     atom                  positions (alat units)
         1        Si     tau(   1) = (   0.0000000   0.0000000  -0.0000000  )
         2        Si     tau(   2) = (   0.4968516   0.4968516   0.3214692  )
         3        O      tau(   3) = (   0.3014775   0.3014775   0.0000000  )
         4        O      tau(   4) = (   0.6922256   0.6922256  -0.0000000  )
         5        O      tau(   5) = (   0.1953740   0.7983291   0.3214692  )
         6        O      tau(   6) = (   0.7983291   0.1953740   0.3214692  )

     number of k points=    30  Marzari-Vanderbilt smearing, width (Ry)=  0.0050
                       cart. coord. in units 2pi/alat
        k(    1) = (   0.0000000   0.0000000   0.0000000), wk =   0.0138889
        k(    2) = (   0.0000000   0.0000000   0.1728176), wk =   0.0277778
        k(    3) = (   0.0000000   0.0000000   0.3456353), wk =   0.0277778
        k(    4) = (   0.0000000   0.0000000   0.5184529), wk =   0.0277778
        k(    5) = (   0.0000000   0.0000000   0.6912706), wk =   0.0277778
        k(    6) = (   0.0000000   0.2515842   0.0000000), wk =   0.0555556
        k(    7) = (   0.0000000   0.2515842   0.1728176), wk =   0.1111111
        k(    8) = (   0.0000000   0.2515842   0.3456353), wk =   0.1111111
        k(    9) = (   0.0000000   0.2515842   0.5184529), wk =   0.1111111
        k(   10) = (   0.0000000   0.2515842   0.6912706), wk =   0.1111111
        k(   11) = (   0.0000000  -0.5031684   0.0000000), wk =   0.0277778
        k(   12) = (   0.0000000  -0.5031684   0.1728176), wk =   0.0555556
        k(   13) = (   0.0000000  -0.5031684   0.3456353), wk =   0.0555556
        k(   14) = (   0.0000000  -0.5031684   0.5184529), wk =   0.0555556
        k(   15) = (   0.0000000  -0.5031684   0.6912706), wk =   0.0555556
        k(   16) = (   0.2515842   0.2515842   0.0000000), wk =   0.0555556
        k(   17) = (   0.2515842   0.2515842   0.1728176), wk =   0.1111111
        k(   18) = (   0.2515842   0.2515842   0.3456353), wk =   0.1111111
        k(   19) = (   0.2515842   0.2515842   0.5184529), wk =   0.1111111
        k(   20) = (   0.2515842   0.2515842   0.6912706), wk =   0.1111111
        k(   21) = (   0.2515842  -0.5031684   0.0000000), wk =   0.0555556
        k(   22) = (   0.2515842  -0.5031684   0.1728176), wk =   0.1111111
        k(   23) = (   0.2515842  -0.5031684   0.3456353), wk =   0.1111111
        k(   24) = (   0.2515842  -0.5031684   0.5184529), wk =   0.1111111
        k(   25) = (   0.2515842  -0.5031684   0.6912706), wk =   0.1111111
        k(   26) = (  -0.5031684  -0.5031684   0.0000000), wk =   0.0138889
        k(   27) = (  -0.5031684  -0.5031684   0.1728176), wk =   0.0277778
        k(   28) = (  -0.5031684  -0.5031684   0.3456353), wk =   0.0277778
        k(   29) = (  -0.5031684  -0.5031684   0.5184529), wk =   0.0277778
        k(   30) = (  -0.5031684  -0.5031684   0.6912706), wk =   0.0277778

     Dense  grid:    39803 G-vectors     FFT dimensions: (  50,  50,  32)

     Estimated max dynamical RAM per process >     204.70 MB

     Check: negative core charge=   -0.000002

     Initial potential from superposition of free atoms

     starting charge      31.9989, renormalised to      32.0000
     Starting wfcs are   24 randomized atomic wfcs
     Checking if some PAW data can be deallocated... 

     total cpu time spent up to now is      407.4 secs

     Self-consistent Calculation

     iteration #  1     ecut=   100.00 Ry     beta= 0.70
     Davidson diagonalization with overlap
     c_bands:  1 eigenvalues not converged
     c_bands:  1 eigenvalues not converged
     c_bands:  1 eigenvalues not converged
     c_bands:  2 eigenvalues not converged
     c_bands:  1 eigenvalues not converged
     c_bands:  1 eigenvalues not converged
     c_bands:  1 eigenvalues not converged
     c_bands:  2 eigenvalues not converged
     c_bands:  2 eigenvalues not converged
     c_bands:  2 eigenvalues not converged
     c_bands:  2 eigenvalues not converged
     c_bands:  1 eigenvalues not converged
     ethr =  1.00E-06,  avg # of iterations = 16.8

     total cpu time spent up to now is      438.4 secs

     total energy              =    -189.60980198 Ry
     estimated scf accuracy    <       1.08108769 Ry

     iteration #  2     ecut=   100.00 Ry     beta= 0.70
     Davidson diagonalization with overlap
     ethr =  3.38E-03,  avg # of iterations =  2.4

     total cpu time spent up to now is      448.6 secs

     total energy              =    -189.99567977 Ry
     estimated scf accuracy    <       0.38482259 Ry

     iteration #  3     ecut=   100.00 Ry     beta= 0.70
     Davidson diagonalization with overlap
     ethr =  1.20E-03,  avg # of iterations =  1.7

     total cpu time spent up to now is      456.3 secs

     total energy              =    -190.03974620 Ry
     estimated scf accuracy    <       0.01093336 Ry

     iteration #  4     ecut=   100.00 Ry     beta= 0.70
     Davidson diagonalization with overlap
     ethr =  3.42E-05,  avg # of iterations =  4.4

     total cpu time spent up to now is      466.4 secs

     total energy              =    -190.04701159 Ry
     estimated scf accuracy    <       0.00819258 Ry

     iteration #  5     ecut=   100.00 Ry     beta= 0.70
     Davidson diagonalization with overlap
     ethr =  2.56E-05,  avg # of iterations =  2.0

     total cpu time spent up to now is      473.6 secs

     total energy              =    -190.04700072 Ry
     estimated scf accuracy    <       0.00151700 Ry

     iteration #  6     ecut=   100.00 Ry     beta= 0.70
     Davidson diagonalization with overlap
     ethr =  4.74E-06,  avg # of iterations =  3.5

     total cpu time spent up to now is      483.5 secs

     total energy              =    -190.04718967 Ry
     estimated scf accuracy    <       0.00011246 Ry

     iteration #  7     ecut=   100.00 Ry     beta= 0.70
     Davidson diagonalization with overlap
     ethr =  3.51E-07,  avg # of iterations =  3.2

     total cpu time spent up to now is      493.2 secs

     total energy              =    -190.04722071 Ry
     estimated scf accuracy    <       0.00000006 Ry

     iteration #  8     ecut=   100.00 Ry     beta= 0.70
     Davidson diagonalization with overlap
     ethr =  2.02E-10,  avg # of iterations =  6.0

     total cpu time spent up to now is      509.9 secs

     total energy              =    -190.04722101 Ry
     estimated scf accuracy    <       0.00000054 Ry

     iteration #  9     ecut=   100.00 Ry     beta= 0.70
     Davidson diagonalization with overlap
     ethr =  2.02E-10,  avg # of iterations =  3.1

     total cpu time spent up to now is      522.0 secs

     total energy              =    -190.04722112 Ry
     estimated scf accuracy    <          1.6E-10 Ry

     iteration # 10     ecut=   100.00 Ry     beta= 0.70
     Davidson diagonalization with overlap
     ethr =  4.88E-13,  avg # of iterations =  6.0

     total cpu time spent up to now is      537.4 secs

     total energy              =    -190.04722112 Ry
     estimated scf accuracy    <          1.7E-10 Ry

     iteration # 11     ecut=   100.00 Ry     beta= 0.70
     Davidson diagonalization with overlap
     ethr =  4.88E-13,  avg # of iterations =  2.0

     total cpu time spent up to now is      545.9 secs

     End of self-consistent calculation

          k = 0.0000 0.0000 0.0000 (  4975 PWs)   bands (ev):

   -11.5658  -7.6269  -7.6269  -7.1749   0.2324   4.8150   4.8831   4.8831
     5.8883   6.3272   8.3027   8.3027   9.1737  10.7458  10.7458  11.6732
    18.3145  18.4603  20.4815  20.4815

          k = 0.0000 0.0000 0.1728 (  5004 PWs)   bands (ev):

   -11.3926  -7.5384  -7.5384  -7.1681   0.3013   5.0042   5.0231   5.0231
     5.4301   6.0798   7.7327   7.7327   8.6014  10.6088  10.6088  11.4938
    18.8829  19.4037  21.2330  21.2330

          k = 0.0000 0.0000 0.3456 (  5004 PWs)   bands (ev):

   -10.8887  -7.3016  -7.3016  -7.2240   0.4738   4.6362   5.2316   5.4211
     5.4211   5.5596   6.4857   6.4857   7.4850  10.1854  10.1854  10.9380
    19.8637  21.5087  22.1220  22.9614

          k = 0.0000 0.0000 0.5185 (  5016 PWs)   bands (ev):

   -10.1065  -7.5324  -7.0066  -7.0066   0.7525   3.8512   4.3381   5.2307
     5.2307   6.0437   6.0437   6.4416   6.4548   9.5354   9.5354  10.0104
    20.4386  22.8794  23.0244  24.6795

          k = 0.0000 0.0000 0.6913 (  4984 PWs)   bands (ev):

    -9.1533  -8.2156  -6.7958  -6.7958   1.3515   2.4300   4.4989   4.4989
     4.7209   5.5121   6.6143   6.6143   7.5728   8.8239   8.9100   8.9100
    21.1422  22.1881  24.3004  25.3696

          k = 0.0000 0.2516 0.0000 (  4987 PWs)   bands (ev):

   -11.2111  -8.7832  -7.4412  -6.7849   0.6966   3.5463   5.1555   5.9427
     6.1540   7.2065   7.7860   8.4666   9.1504   9.5073  10.6453  11.1904
    19.0796  19.1322  20.7216  20.7448

          k = 0.0000 0.2516 0.1728 (  4974 PWs)   bands (ev):

   -11.0432  -8.6685  -7.3655  -6.7768   0.8118   3.6536   4.8220   5.6562
     6.4896   6.5143   7.7072   7.9748   8.3703   9.7813  10.4952  11.1300
    19.5629  19.9627  21.4056  21.4297

          k = 0.0000 0.2516 0.3456 (  4982 PWs)   bands (ev):

   -10.5568  -8.3643  -7.1723  -6.8033   1.0907   3.8496   3.8863   5.1410
     5.6741   6.8428   6.9189   7.1591   7.5651   9.8287  10.0520  10.8253
    20.3069  21.8645  22.5983  22.9862

          k = 0.0000 0.2516 0.5185 (  5001 PWs)   bands (ev):

    -9.8115  -8.0407  -6.9654  -6.9451   1.3288   3.2273   3.4193   4.5668
     5.0762   5.5382   7.1782   7.2448   7.4576   9.4324   9.5894  10.2143
    20.7342  22.5183  22.7208  23.8863

          k = 0.0000 0.2516 0.6913 (  4984 PWs)   bands (ev):

    -8.9349  -8.1891  -6.9869  -6.8913   1.5718   2.1937   3.6722   4.1582
     4.6161   4.8508   7.1725   7.4845   8.1835   9.0409   9.0958   9.4828
    21.1373  21.7985  23.1212  23.5900

          k = 0.0000-0.5032 0.0000 (  4956 PWs)   bands (ev):

   -10.2078 -10.2078  -7.0147  -7.0147   1.8858   1.8858   6.8745   6.8745
     6.8785   6.8785   7.4357   7.4357   8.8494   8.8494  10.5727  10.5727
    20.1107  20.1107  21.1075  21.1075

          k = 0.0000-0.5032 0.1728 (  4984 PWs)   bands (ev):

   -10.0575 -10.0575  -6.9748  -6.9748   2.0252   2.0252   5.5603   5.5603
     7.1134   7.1134   7.7996   7.7996   8.6183   8.6183  10.4717  10.4717
    20.7142  20.7142  21.7987  21.7987

          k = 0.0000-0.5032 0.3456 (  5006 PWs)   bands (ev):

    -9.6311  -9.6311  -6.9005  -6.9005   2.4025   2.4025   4.0150   4.0150
     6.3159   6.3159   8.0139   8.0139   8.5932   8.5932  10.2118  10.2118
    21.5926  21.5926  22.9731  22.9731

          k = 0.0000-0.5032 0.5185 (  4984 PWs)   bands (ev):

    -9.0157  -9.0157  -6.9141  -6.9141   2.7040   2.7040   2.8874   2.8874
     5.3140   5.3140   7.7853   7.7853   8.9039   8.9039   9.9499   9.9499
    21.5107  21.5107  22.5039  22.5039

          k = 0.0000-0.5032 0.6913 (  4988 PWs)   bands (ev):

    -8.4385  -8.4385  -7.0838  -7.0838   2.0466   2.0466   3.0625   3.0625
     4.8627   4.8627   7.3947   7.3947   9.2077   9.2077   9.7843   9.7843
    21.1057  21.1057  22.4024  22.4024

          k = 0.2516 0.2516 0.0000 (  4961 PWs)   bands (ev):

   -10.8765  -8.9402  -7.8617  -6.9003   1.2920   3.7015   4.9434   6.4080
     6.4584   7.4267   7.7838   8.2231   9.0060   9.0705  10.1174  10.7981
    19.1080  19.9091  20.7881  21.5228

          k = 0.2516 0.2516 0.1728 (  4980 PWs)   bands (ev):

   -10.7142  -8.8259  -7.7654  -6.8751   1.3926   3.4768   5.0431   5.9190
     6.4662   6.7073   7.7439   7.9445   8.2223   9.5424  10.0803  10.8569
    19.6839  20.5716  21.3163  22.1918

          k = 0.2516 0.2516 0.3456 (  4980 PWs)   bands (ev):

   -10.2471  -8.5240  -7.5068  -6.8486   1.5734   2.8383   4.7796   5.1074
     5.9089   6.1015   6.8770   7.5031   8.2393   9.6431   9.9318  10.7447
    20.3612  21.7477  22.5094  23.4579

          k = 0.2516 0.2516 0.5185 (  4988 PWs)   bands (ev):

    -9.5433  -8.1873  -7.1813  -6.9293   1.3259   2.4007   3.8141   4.3218
     4.8988   6.2759   6.4011   8.0137   8.1964   9.4660   9.6106  10.3378
    20.4206  21.4299  23.3675  24.0598

          k = 0.2516 0.2516 0.6913 (  4993 PWs)   bands (ev):

    -8.7541  -8.1757  -7.0736  -6.9461   0.9097   2.0809   3.6303   3.7305
     4.0703   6.2129   6.7112   8.2898   8.7021   9.1764   9.2038   9.7889
    20.3828  20.9981  23.3006  23.6781

          k = 0.2516-0.5032 0.0000 (  4984 PWs)   bands (ev):

    -9.9604  -9.9604  -7.4983  -7.4983   2.5806   2.5806   6.2946   6.2946
     7.0814   7.0814   7.9010   7.9010   8.5620   8.5620  10.0881  10.0881
    19.8980  19.8980  21.6609  21.6609

          k = 0.2516-0.5032 0.1728 (  4964 PWs)   bands (ev):

    -9.8171  -9.8171  -7.4277  -7.4277   2.5682   2.5682   5.6989   5.6989
     6.8311   6.8311   7.8181   7.8181   8.5773   8.5773  10.1834  10.1834
    20.4360  20.4360  22.2404  22.2404

          k = 0.2516-0.5032 0.3456 (  4982 PWs)   bands (ev):

    -9.4147  -9.4147  -7.2570  -7.2570   2.3167   2.3167   4.7967   4.7967
     5.8324   5.8324   7.8633   7.8633   8.7923   8.7923  10.2012  10.2012
    20.9497  20.9497  23.4640  23.4640

          k = 0.2516-0.5032 0.5185 (  4992 PWs)   bands (ev):

    -8.8528  -8.8528  -7.1046  -7.1046   1.6076   1.6076   4.0789   4.0789
     5.1889   5.1889   7.9222   7.9222   9.0670   9.0670  10.0620  10.0620
    20.5345  20.5345  23.4512  23.4512

          k = 0.2516-0.5032 0.6913 (  5000 PWs)   bands (ev):

    -8.3662  -8.3662  -7.0842  -7.0842   1.0230   1.0230   3.4142   3.4142
     5.2845   5.2845   7.8690   7.8690   9.2712   9.2712   9.9311   9.9311
    20.1211  20.1211  22.9865  22.9865

          k =-0.5032-0.5032 0.0000 (  4988 PWs)   bands (ev):

    -9.5940  -9.5940  -8.0791  -8.0791   3.4927   3.4927   5.5440   5.5440
     7.4198   7.4198   8.1450   8.1450   8.7037   8.7037   9.1987   9.1987
    19.8045  19.8045  22.2495  22.2495

          k =-0.5032-0.5032 0.1728 (  4964 PWs)   bands (ev):

    -9.4636  -9.4636  -7.9763  -7.9763   3.2077   3.2077   5.5360   5.5360
     7.1544   7.1544   7.2084   7.2084   9.2796   9.2796   9.3528   9.3528
    20.2883  20.2883  22.7732  22.7732

          k =-0.5032-0.5032 0.3456 (  4964 PWs)   bands (ev):

    -9.1068  -9.1068  -7.6990  -7.6990   2.3535   2.3535   4.9768   4.9768
     6.4501   6.4501   6.9549   6.9549   9.4925   9.4925   9.7969   9.7969
    20.6605  20.6605  23.5362  23.5362

          k =-0.5032-0.5032 0.5185 (  5000 PWs)   bands (ev):

    -8.6409  -8.6409  -7.3468  -7.3468   1.2510   1.2510   3.8052   3.8052
     6.6219   6.6219   6.9507   6.9507   9.7504   9.7504   9.9319   9.9319
    20.1187  20.1187  23.3668  23.3669

          k =-0.5032-0.5032 0.6913 (  5020 PWs)   bands (ev):

    -8.2883  -8.2883  -7.0896  -7.0896   0.4835   0.4835   3.0369   3.0369
     6.8593   6.8593   7.0364   7.0364   9.9116   9.9116   9.9291   9.9291
    19.5952  19.5952  23.2623  23.2623

     the Fermi energy is    16.4759 ev

!    total energy              =    -190.04722112 Ry
     estimated scf accuracy    <          9.8E-12 Ry
     smearing contrib. (-TS)   =       0.00000000 Ry
     internal energy E=F+TS    =    -190.04722112 Ry

     The total energy is F=E-TS. E is the sum of the following terms:
     one-electron contribution =      -8.31984336 Ry
     hartree contribution      =      30.54396755 Ry
     xc contribution           =     -43.50979520 Ry
     ewald contribution        =    -130.78030751 Ry
     one-center paw contrib.   =     -37.98124260 Ry

     convergence has been achieved in  11 iterations

     Forces acting on atoms (cartesian axes, Ry/au):

     atom    1 type  1   force =     0.00000000    0.00000000    0.00000000
     atom    2 type  1   force =     0.00000000    0.00000000    0.00000000
     atom    3 type  2   force =    -0.00001704   -0.00001704   -0.00000000
     atom    4 type  2   force =     0.00001704    0.00001704   -0.00000000
     atom    5 type  2   force =     0.00001704   -0.00001704   -0.00000000
     atom    6 type  2   force =    -0.00001704    0.00001704    0.00000000

     Total force =     0.000048     Total SCF correction =     0.000001


     Computing stress (Cartesian axis) and pressure

          total   stress  (Ry/bohr**3)                   (kbar)     P=      338.40
   0.00230038   0.00000000   0.00000000          338.40        0.00        0.00
   0.00000000   0.00230038   0.00000000            0.00      338.40        0.00
   0.00000000   0.00000000   0.00230044            0.00        0.00      338.41


     Writing all to output data dir ./SiO2.save/ :
     XML data file, charge density, pseudopotentials, collected wavefunctions

     init_run     :      8.05s CPU      8.95s WALL (       2 calls)
     electrons    :    478.69s CPU    485.38s WALL (       6 calls)
     update_pot   :      0.70s CPU      0.73s WALL (       4 calls)
     forces       :     11.89s CPU     11.66s WALL (       6 calls)
     stress       :     42.36s CPU     45.58s WALL (       6 calls)

     Called by init_run:
     wfcinit      :      6.14s CPU      6.68s WALL (       2 calls)
     potinit      :      0.43s CPU      0.50s WALL (       2 calls)
     hinit0       :      1.12s CPU      1.14s WALL (       2 calls)

     Called by electrons:
     c_bands      :    420.61s CPU    423.24s WALL (      45 calls)
     sum_band     :     44.24s CPU     44.85s WALL (      45 calls)
     v_of_rho     :      1.31s CPU      1.37s WALL (      49 calls)
     newd         :      7.53s CPU     11.23s WALL (      49 calls)
     PAW_pot      :      7.17s CPU      7.43s WALL (      53 calls)
     mix_rho      :      0.22s CPU      0.25s WALL (      45 calls)

     Called by c_bands:
     init_us_2    :      7.22s CPU      7.54s WALL (    3240 calls)
     cegterg      :    406.68s CPU    408.83s WALL (    1350 calls)

     Called by *egterg:
     cdiaghg      :      3.59s CPU      3.76s WALL (    5806 calls)
     h_psi        :    212.85s CPU    216.61s WALL (    6046 calls)
     s_psi        :     55.87s CPU     55.58s WALL (    6046 calls)
     g_psi        :      1.23s CPU      1.27s WALL (    4636 calls)

     Called by h_psi:
     h_psi:calbec :     58.13s CPU     59.00s WALL (    6046 calls)
     vloc_psi     :     97.46s CPU     98.43s WALL (    6046 calls)
                                        0.00s GPU  (    6046 calls)
     add_vuspsi   :     56.16s CPU     58.05s WALL (    6046 calls)

     General routines
     calbec       :    114.43s CPU    114.95s WALL (   10576 calls)
     fft          :      0.58s CPU      0.59s WALL (     695 calls)
     ffts         :      0.03s CPU      0.03s WALL (      45 calls)
     fftw         :     95.31s CPU     95.01s WALL (  199900 calls)

     Parallel routines

     PWSCF        :   9m 4.79s CPU   9m15.95s WALL


   This run was terminated on:  17:58: 6  19Jul2026            

=------------------------------------------------------------------------------=
   JOB DONE.
=------------------------------------------------------------------------------=
