
     Program PWSCF v.7.5 starts on 10Jul2026 at  5:18:46 

     This program is part of the open-source Quantum ESPRESSO suite
     for quantum simulation of materials; please cite
         "P. Giannozzi et al., J. Phys.:Condens. Matter 21 395502 (2009);
         "P. Giannozzi et al., J. Phys.:Condens. Matter 29 465901 (2017);
         "P. Giannozzi et al., J. Chem. Phys. 152 154105 (2020);
          URL http://www.quantum-espresso.org", 
     in publications or presentations arising from this work. More details at
     http://www.quantum-espresso.org/quote

     Parallel version (MPI), running on     1 processors

     MPI processes distributed on     1 nodes
     9958 MiB available memory on the printing compute node when the environment starts

     Reading input from espresso.pwi
Warning: card &CELL ignored
Warning: card &FCP ignored
Warning: card &RISM ignored

     Current dimensions of program PWSCF are:
     Max number of different atomic species (ntypx) = 10
     Max number of k-points (npk) =  40000
     Max angular momentum in pseudopotentials (lmaxx) =  4
     file Fe.pbe-spn-kjpaw_psl.0.2.1.UPF: wavefunction(s)  3D renormalized
     file Al.pbe-n-kjpaw_psl.0.1.UPF: wavefunction(s)  3S renormalized
     Message from routine setup:
     using ibrav=0 with symmetry is DISCOURAGED, use correct ibrav instead

     Subspace diagonalization in iterative solution of the eigenvalue problem:
     a serial algorithm will be used


     G-vector sticks info
     --------------------
     sticks:   dense  smooth     PW     G-vecs:    dense   smooth      PW
     Sum        2205     879    263               103275    26167    4359

     Using Slab Decomposition



     bravais-lattice index     =            0
     lattice parameter (alat)  =       4.8242  a.u.
     unit-cell volume          =     330.2631 (a.u.)^3
     number of atoms/cell      =            4
     number of atomic types    =            2
     number of electrons       =        38.00
     number of Kohn-Sham states=           23
     kinetic-energy cutoff     =      70.0000  Ry
     charge density cutoff     =     700.0000  Ry
     scf convergence threshold =      1.0E-08
     mixing beta               =       0.7000
     number of iterations used =            8  plain     mixing
     Exchange-correlation= SLA  PW   PBX  PBC
                           (   1   4   3   4   0   0   0)

     celldm(1)=   4.824234  celldm(2)=   0.000000  celldm(3)=   0.000000
     celldm(4)=   0.000000  celldm(5)=   0.000000  celldm(6)=   0.000000

     crystal axes: (cart. coord. in units of alat)
               a(1) = (   1.000000   0.000000   0.000000 )  
               a(2) = (   0.000000   1.698300   0.000000 )  
               a(3) = (   0.000000   0.000000   1.732050 )  

     reciprocal axes: (cart. coord. in units 2 pi/alat)
               b(1) = (  1.000000  0.000000  0.000000 )  
               b(2) = (  0.000000  0.588824  0.000000 )  
               b(3) = (  0.000000  0.000000  0.577351 )  


     PseudoPot. # 1 for Fe read from file:
     /home/yluo/ASE/volume_optimization/CMP_pseudos/Fe.pbe-spn-kjpaw_psl.0.2.1.UPF
     MD5 check sum: 4338034a7fd945be4bb7db5fd3b2d142
     Pseudo is Projector augmented-wave + core cor, Zval = 16.0
     Generated using "atomic" code by A. Dal Corso  v.5.0.2 svn rev. 9415
     Shape of augmentation charge: PSQ
     Using radial grid of 1191 points,  6 beta functions with: 
                l(1) =   0
                l(2) =   0
                l(3) =   1
                l(4) =   1
                l(5) =   2
                l(6) =   2
     Q(r) pseudized with 0 coefficients 


     PseudoPot. # 2 for Al read from file:
     /home/yluo/ASE/volume_optimization/CMP_pseudos/Al.pbe-n-kjpaw_psl.0.1.UPF
     MD5 check sum: 9111391c6252b599ac5002cf021b5091
     Pseudo is Projector augmented-wave + core cor, Zval =  3.0
     Generated using "atomic" code by A. Dal Corso  v.5.0.2 svn rev. 9415
     Shape of augmentation charge: PSQ
     Using radial grid of 1135 points,  4 beta functions with: 
                l(1) =   0
                l(2) =   0
                l(3) =   1
                l(4) =   1
     Q(r) pseudized with 0 coefficients 


     atomic species   valence    mass     pseudopotential
     Fe               16.00    55.84500     Fe( 1.00)
     Al                3.00    26.98154     Al( 1.00)

      8 Sym. Ops., with inversion, found ( 6 have fractional translation)



   Cartesian axes

     site n.     atom                  positions (alat units)
         1        Fe     tau(   1) = (   0.7500000   1.2737252   1.5877123  )
         2        Fe     tau(   2) = (   0.2500000   0.4245751   0.1443375  )
         3        Al     tau(   3) = (   0.2500000   1.2737252   0.7216874  )
         4        Al     tau(   4) = (   0.7500000   0.4245751   1.0103624  )

     number of k points=    36  Marzari-Vanderbilt smearing, width (Ry)=  0.0050
                       cart. coord. in units 2pi/alat
        k(    1) = (   0.0000000   0.0000000   0.0000000), wk =   0.0208333
        k(    2) = (   0.0000000   0.0000000   0.1443377), wk =   0.0416667
        k(    3) = (   0.0000000   0.0000000  -0.2886753), wk =   0.0208333
        k(    4) = (   0.0000000   0.1472060   0.0000000), wk =   0.0416667
        k(    5) = (   0.0000000   0.1472060   0.1443377), wk =   0.0833333
        k(    6) = (   0.0000000   0.1472060  -0.2886753), wk =   0.0416667
        k(    7) = (   0.0000000  -0.2944120   0.0000000), wk =   0.0208333
        k(    8) = (   0.0000000  -0.2944120   0.1443377), wk =   0.0416667
        k(    9) = (   0.0000000  -0.2944120  -0.2886753), wk =   0.0208333
        k(   10) = (   0.1666667   0.0000000   0.0000000), wk =   0.0416667
        k(   11) = (   0.1666667   0.0000000   0.1443377), wk =   0.0833333
        k(   12) = (   0.1666667   0.0000000  -0.2886753), wk =   0.0416667
        k(   13) = (   0.1666667   0.1472060   0.0000000), wk =   0.0833333
        k(   14) = (   0.1666667   0.1472060   0.1443377), wk =   0.1666667
        k(   15) = (   0.1666667   0.1472060  -0.2886753), wk =   0.0833333
        k(   16) = (   0.1666667  -0.2944120   0.0000000), wk =   0.0416667
        k(   17) = (   0.1666667  -0.2944120   0.1443377), wk =   0.0833333
        k(   18) = (   0.1666667  -0.2944120  -0.2886753), wk =   0.0416667
        k(   19) = (   0.3333333   0.0000000   0.0000000), wk =   0.0416667
        k(   20) = (   0.3333333   0.0000000   0.1443377), wk =   0.0833333
        k(   21) = (   0.3333333   0.0000000  -0.2886753), wk =   0.0416667
        k(   22) = (   0.3333333   0.1472060   0.0000000), wk =   0.0833333
        k(   23) = (   0.3333333   0.1472060   0.1443377), wk =   0.1666667
        k(   24) = (   0.3333333   0.1472060  -0.2886753), wk =   0.0833333
        k(   25) = (   0.3333333  -0.2944120   0.0000000), wk =   0.0416667
        k(   26) = (   0.3333333  -0.2944120   0.1443377), wk =   0.0833333
        k(   27) = (   0.3333333  -0.2944120  -0.2886753), wk =   0.0416667
        k(   28) = (  -0.5000000   0.0000000   0.0000000), wk =   0.0208333
        k(   29) = (  -0.5000000   0.0000000   0.1443377), wk =   0.0416667
        k(   30) = (  -0.5000000   0.0000000  -0.2886753), wk =   0.0208333
        k(   31) = (  -0.5000000   0.1472060   0.0000000), wk =   0.0416667
        k(   32) = (  -0.5000000   0.1472060   0.1443377), wk =   0.0833333
        k(   33) = (  -0.5000000   0.1472060  -0.2886753), wk =   0.0416667
        k(   34) = (  -0.5000000  -0.2944120   0.0000000), wk =   0.0208333
        k(   35) = (  -0.5000000  -0.2944120   0.1443377), wk =   0.0416667
        k(   36) = (  -0.5000000  -0.2944120  -0.2886753), wk =   0.0208333

     Dense  grid:   103275 G-vectors     FFT dimensions: (  48,  72,  72)

     Smooth grid:    26167 G-vectors     FFT dimensions: (  30,  48,  45)

     Estimated max dynamical RAM per process >     428.58 MB

     Check: negative core charge=   -0.000013

     Initial potential from superposition of free atoms

     starting charge      37.9945, renormalised to      38.0000
     Starting wfcs are   34 randomized atomic wfcs
     Checking if some PAW data can be deallocated... 

     total cpu time spent up to now is        4.0 secs

     Self-consistent Calculation

     iteration #  1     ecut=    70.00 Ry     beta= 0.70
     Davidson diagonalization with overlap
     ethr =  1.00E-02,  avg # of iterations =  2.6

     Threshold (ethr) on eigenvalues was too large:
     Diagonalizing with lowered threshold

     Davidson diagonalization with overlap
     ethr =  5.07E-04,  avg # of iterations =  4.3

     total cpu time spent up to now is       14.6 secs

     total energy              =    -737.44499219 Ry
     estimated scf accuracy    <       0.17589438 Ry

     iteration #  2     ecut=    70.00 Ry     beta= 0.70
     Davidson diagonalization with overlap
     ethr =  4.63E-04,  avg # of iterations =  4.6

     total cpu time spent up to now is       22.7 secs

     total energy              =    -737.26099195 Ry
     estimated scf accuracy    <       2.46626928 Ry

     iteration #  3     ecut=    70.00 Ry     beta= 0.70
     Davidson diagonalization with overlap
     ethr =  4.63E-04,  avg # of iterations =  4.5

     total cpu time spent up to now is       29.6 secs

     total energy              =    -737.53510265 Ry
     estimated scf accuracy    <       0.03916792 Ry

     iteration #  4     ecut=    70.00 Ry     beta= 0.70
     Davidson diagonalization with overlap
     ethr =  1.03E-04,  avg # of iterations =  2.0

     total cpu time spent up to now is       35.3 secs

     total energy              =    -737.54162641 Ry
     estimated scf accuracy    <       0.00055715 Ry

     iteration #  5     ecut=    70.00 Ry     beta= 0.70
     Davidson diagonalization with overlap
     ethr =  1.47E-06,  avg # of iterations =  7.2

     total cpu time spent up to now is       44.9 secs

     total energy              =    -737.54233352 Ry
     estimated scf accuracy    <       0.00008394 Ry

     iteration #  6     ecut=    70.00 Ry     beta= 0.70
     Davidson diagonalization with overlap
     ethr =  2.21E-07,  avg # of iterations =  4.0

     total cpu time spent up to now is       52.0 secs

     total energy              =    -737.54235702 Ry
     estimated scf accuracy    <       0.00001213 Ry

     iteration #  7     ecut=    70.00 Ry     beta= 0.70
     Davidson diagonalization with overlap
     ethr =  3.19E-08,  avg # of iterations =  3.9

     total cpu time spent up to now is       57.9 secs

     total energy              =    -737.54236185 Ry
     estimated scf accuracy    <       0.00000057 Ry

     iteration #  8     ecut=    70.00 Ry     beta= 0.70
     Davidson diagonalization with overlap
     ethr =  1.49E-09,  avg # of iterations =  6.2

     total cpu time spent up to now is       66.2 secs

     total energy              =    -737.54236250 Ry
     estimated scf accuracy    <       0.00000003 Ry

     iteration #  9     ecut=    70.00 Ry     beta= 0.70
     Davidson diagonalization with overlap
     ethr =  8.46E-11,  avg # of iterations =  5.9

     total cpu time spent up to now is       73.8 secs

     End of self-consistent calculation

          k = 0.0000 0.0000 0.0000 (  3255 PWs)   bands (ev):

   -72.9896 -72.9587 -39.2245 -39.0382 -39.0283 -38.9890 -38.8920 -38.8879
     2.8075   8.8935   9.9310   9.9823  10.4873  11.5189  11.7867  12.4156
    12.9162  12.9555  13.6004  13.7435  14.4492  14.5335  15.8018

          k = 0.0000 0.0000 0.1443 (  3272 PWs)   bands (ev):

   -72.9896 -72.9587 -39.2244 -39.0384 -39.0281 -38.9893 -38.8926 -38.8884
     3.2218   7.5804   9.5557   9.7052  11.2367  11.8397  12.3405  12.5004
    12.9134  12.9616  13.5717  13.7540  14.1519  14.4453  17.1041

          k = 0.0000 0.0000-0.2887 (  3282 PWs)   bands (ev):

   -72.9896 -72.9587 -39.2243 -39.0385 -39.0282 -38.9895 -38.8934 -38.8885
     3.8873   6.1988   9.2907  10.1506  11.6219  11.8455  12.0451  12.8921
    12.9677  13.3534  13.5463  13.7615  14.0779  14.4414  15.0017

          k = 0.0000 0.1472 0.0000 (  3262 PWs)   bands (ev):

   -72.9851 -72.9632 -39.1982 -39.0618 -39.0311 -38.9966 -38.8891 -38.8840
     3.3020   6.9361  10.1817  10.2789  10.8797  11.4593  12.2918  12.7298
    12.9387  13.0671  13.6333  13.7073  14.2929  14.3428  17.1465

          k = 0.0000 0.1472 0.1443 (  3283 PWs)   bands (ev):

   -72.9851 -72.9632 -39.1983 -39.0619 -39.0313 -38.9968 -38.8895 -38.8845
     3.7025   7.1793   8.1868  10.2658  11.4577  11.5519  12.2255  12.5311
    13.0651  13.2510  13.6314  13.6934  14.2533  14.2986  17.0244

          k = 0.0000 0.1472-0.2887 (  3290 PWs)   bands (ev):

   -72.9851 -72.9632 -39.1986 -39.0618 -39.0314 -38.9968 -38.8898 -38.8847
     4.3317   6.6901   7.7014   9.7631  11.7012  11.7623  12.1080  12.2383
    13.0629  13.6295  13.6802  13.6990  13.7543  14.3038  16.7286

          k = 0.0000-0.2944 0.0000 (  3270 PWs)   bands (ev):

   -72.9741 -72.9741 -39.1333 -39.1333 -39.0140 -39.0140 -38.8835 -38.8835
     4.7379   4.7379  10.4011  10.4011  11.3441  11.3441  12.3904  12.3904
    13.3501  13.3501  13.7198  13.7198  13.9769  13.9769  16.8539

          k = 0.0000-0.2944 0.1443 (  3274 PWs)   bands (ev):

   -72.9741 -72.9741 -39.1331 -39.1331 -39.0139 -39.0139 -38.8841 -38.8841
     5.0970   5.0970   9.2803   9.2803  11.5389  11.5389  12.0821  12.0821
    13.3387  13.3387  13.8523  13.8523  13.9840  13.9840  18.5804

          k = 0.0000-0.2944-0.2887 (  3296 PWs)   bands (ev):

   -72.9741 -72.9741 -39.1332 -39.1332 -39.0143 -39.0143 -38.8845 -38.8845
     5.6273   5.6273   8.1962   8.1962  11.6622  11.6622  11.8933  11.8933
    13.3275  13.3275  13.9317  13.9317  13.9909  13.9909  20.4892

          k = 0.1667 0.0000 0.0000 (  3273 PWs)   bands (ev):

   -72.9821 -72.9553 -39.2065 -39.0858 -39.0437 -39.0364 -38.8859 -38.8823
     3.4437   9.2829  10.3401  10.3561  10.9298  11.6003  11.7105  12.5533
    12.5652  12.8141  13.3949  14.0894  14.6729  14.9140  15.8807

          k = 0.1667 0.0000 0.1443 (  3277 PWs)   bands (ev):

   -72.9821 -72.9553 -39.2064 -39.0855 -39.0439 -39.0365 -38.8865 -38.8824
     3.8392   8.1154   9.9487  10.2361  11.5260  11.7389  12.1555  12.5183
    12.6628  12.9741  13.3644  13.5360  14.6023  14.7486  17.5336

          k = 0.1667 0.0000-0.2887 (  3282 PWs)   bands (ev):

   -72.9821 -72.9553 -39.2060 -39.0855 -39.0441 -39.0367 -38.8868 -38.8827
     4.4568   6.8543   9.6976  10.5962  11.6734  12.0463  12.3183  12.4411
    12.7307  13.2727  13.4786  13.5188  13.5437  15.1658  16.0736

          k = 0.1667 0.1472 0.0000 (  3265 PWs)   bands (ev):

   -72.9782 -72.9592 -39.1883 -39.0828 -39.0744 -39.0310 -38.8837 -38.8802
     3.9289   7.4889  10.4517  10.6385  11.2267  11.4663  12.3762  12.3902
    12.7474  12.8537  13.6788  13.7649  14.8141  14.8347  17.2789

          k = 0.1667 0.1472 0.1443 (  3271 PWs)   bands (ev):

   -72.9782 -72.9592 -39.1885 -39.0827 -39.0743 -39.0311 -38.8840 -38.8804
     4.3111   7.6993   8.7509  10.7231  11.5045  11.6839  12.1745  12.3851
    12.7060  13.2066  13.5223  13.6834  14.0897  15.1297  17.2203

          k = 0.1667 0.1472-0.2887 (  3278 PWs)   bands (ev):

   -72.9782 -72.9592 -39.1885 -39.0828 -39.0744 -39.0312 -38.8843 -38.8807
     4.8959   7.3050   8.2323  10.3166  11.7878  11.8861  11.9734  12.3771
    12.6592  13.2764  13.3218  13.7284  13.8707  14.8343  17.0194

          k = 0.1667-0.2944 0.0000 (  3256 PWs)   bands (ev):

   -72.9687 -72.9687 -39.1407 -39.1407 -39.0495 -39.0495 -38.8799 -38.8799
     5.3385   5.3385  10.7835  10.7835  11.5775  11.5775  11.9625  11.9625
    13.1248  13.1248  13.6960  13.6960  14.8299  14.8299  17.0590

          k = 0.1667-0.2944 0.1443 (  3272 PWs)   bands (ev):

   -72.9687 -72.9687 -39.1409 -39.1409 -39.0496 -39.0496 -38.8803 -38.8803
     5.6792   5.6792   9.7812   9.7812  11.7471  11.7471  11.9609  11.9609
    13.0493  13.0493  13.8005  13.8005  14.1797  14.1797  19.1284

          k = 0.1667-0.2944-0.2887 (  3272 PWs)   bands (ev):

   -72.9687 -72.9687 -39.1408 -39.1408 -39.0496 -39.0496 -38.8804 -38.8804
     6.1699   6.1699   8.8009   8.8009  11.8224  11.8224  11.9674  11.9674
    12.9627  12.9627  13.7124  13.7124  14.1094  14.1094  20.4495

          k = 0.3333 0.0000 0.0000 (  3273 PWs)   bands (ev):

   -72.9656 -72.9501 -39.1765 -39.1604 -39.1525 -39.0625 -38.8746 -38.8721
     5.2854   9.9659  10.7156  10.9680  11.0187  11.4843  11.8854  12.4505
    12.7824  12.8428  13.9783  15.0189  15.2125  15.5564  15.7349

          k = 0.3333 0.0000 0.1443 (  3258 PWs)   bands (ev):

   -72.9656 -72.9501 -39.1763 -39.1605 -39.1522 -39.0625 -38.8744 -38.8719
     5.6220   9.4070  10.7862  10.7959  11.2770  11.5172  11.7880  12.4532
    12.7326  13.1586  13.5313  13.9832  14.6601  15.3952  16.9290

          k = 0.3333 0.0000-0.2887 (  3252 PWs)   bands (ev):

   -72.9655 -72.9500 -39.1763 -39.1602 -39.1523 -39.0624 -38.8745 -38.8720
     6.1033   8.6283  10.6342  10.9829  11.2760  11.5190  12.3883  12.3915
    12.4614  13.1911  13.4310  13.6007  14.0379  15.7190  18.0275

          k = 0.3333 0.1472 0.0000 (  3262 PWs)   bands (ev):

   -72.9633 -72.9523 -39.2017 -39.1732 -39.1177 -39.0596 -38.8735 -38.8723
     5.7354   8.9282  10.5744  10.8964  11.3942  11.7432  11.9253  12.0212
    12.8459  13.0694  13.9629  14.2555  15.4819  15.8428  15.9556

          k = 0.3333 0.1472 0.1443 (  3261 PWs)   bands (ev):

   -72.9633 -72.9523 -39.2017 -39.1731 -39.1178 -39.0596 -38.8736 -38.8722
     6.0618   9.0629  10.0414  10.9175  11.2853  11.6585  12.0087  12.2223
    12.9803  13.1006  13.5555  13.9571  14.1458  15.3116  17.2981

          k = 0.3333 0.1472-0.2887 (  3264 PWs)   bands (ev):

   -72.9633 -72.9523 -39.2016 -39.1731 -39.1177 -39.0597 -38.8739 -38.8723
     6.5226   8.8504   9.7514  11.0804  11.3035  11.4710  12.1882  12.3485
    12.4053  12.8987  13.4904  13.6953  13.9887  15.8337  16.3673

          k = 0.3333-0.2944 0.0000 (  3256 PWs)   bands (ev):

   -72.9578 -72.9578 -39.2008 -39.2008 -39.0751 -39.0751 -38.8728 -38.8728
     7.0334   7.0334  11.0612  11.0612  11.3976  11.3976  12.1189  12.1189
    12.9413  12.9413  13.7616  13.7616  15.9125  15.9125  16.7500

          k = 0.3333-0.2944 0.1443 (  3266 PWs)   bands (ev):

   -72.9578 -72.9578 -39.2008 -39.2008 -39.0755 -39.0755 -38.8728 -38.8728
     7.3248   7.3248  10.5544  10.5544  11.6328  11.6328  12.1779  12.1779
    12.9437  12.9437  13.5998  13.5998  14.4984  14.4984  17.2753

          k = 0.3333-0.2944-0.2887 (  3276 PWs)   bands (ev):

   -72.9578 -72.9578 -39.2010 -39.2010 -39.0756 -39.0756 -38.8729 -38.8729
     7.7106   7.7106  10.1292  10.1292  11.6503  11.6503  12.2772  12.2772
    12.4792  12.4792  13.5873  13.5873  14.3022  14.3022  17.2918

          k =-0.5000 0.0000 0.0000 (  3272 PWs)   bands (ev):

   -72.9524 -72.9524 -39.2137 -39.2137 -39.1068 -39.1068 -38.8679 -38.8679
     8.0855   8.0855  10.4856  10.4856  11.2103  11.2103  12.6811  12.6811
    12.9341  12.9341  14.7862  14.7862  16.8241  16.8453  16.8455

          k =-0.5000 0.0000 0.1443 (  3252 PWs)   bands (ev):

   -72.9524 -72.9524 -39.2136 -39.2136 -39.1064 -39.1064 -38.8678 -38.8678
     8.3100   8.3100  10.5449  10.5449  11.1691  11.1691  12.6568  12.6568
    12.9623  12.9623  14.0259  14.0259  15.7219  15.7219  16.9993

          k =-0.5000 0.0000-0.2887 (  3252 PWs)   bands (ev):

   -72.9524 -72.9524 -39.2137 -39.2137 -39.1066 -39.1066 -38.8676 -38.8676
     8.5569   8.5569  10.8049  10.8049  11.1295  11.1295  12.1565  12.1565
    12.9888  12.9888  13.3957  13.3957  15.7048  15.7048  17.1725

          k =-0.5000 0.1472 0.0000 (  3248 PWs)   bands (ev):

   -72.9523 -72.9523 -39.2306 -39.2306 -39.0887 -39.0887 -38.8683 -38.8683
     8.3851   8.3851  10.6487  10.6487  11.1867  11.1867  12.1267  12.1267
    12.7101  12.7101  14.6719  14.6719  15.3797  15.3797  17.4579

          k =-0.5000 0.1472 0.1443 (  3252 PWs)   bands (ev):

   -72.9523 -72.9523 -39.2306 -39.2306 -39.0889 -39.0889 -38.8683 -38.8683
     8.6453   8.6453  10.3403  10.3403  11.5700  11.5700  12.0700  12.0700
    13.0048  13.0048  13.8505  13.8505  14.9680  14.9680  17.0463

          k =-0.5000 0.1472-0.2887 (  3264 PWs)   bands (ev):

   -72.9524 -72.9524 -39.2307 -39.2307 -39.0889 -39.0889 -38.8685 -38.8685
     8.9171   8.9171  10.3791  10.3791  11.7074  11.7074  11.9362  11.9362
    12.7197  12.7197  13.4453  13.4453  15.3276  15.3276  16.2756

          k =-0.5000-0.2944 0.0000 (  3260 PWs)   bands (ev):

   -72.9524 -72.9524 -39.2445 -39.2445 -39.0744 -39.0744 -38.8690 -38.8690
     8.8274   8.8274  10.7560  10.7560  10.9727  10.9727  11.5310  11.5310
    12.8920  12.8920  14.0273  14.0273  15.1660  15.1660  18.0969

          k =-0.5000-0.2944 0.1443 (  3268 PWs)   bands (ev):

   -72.9524 -72.9524 -39.2444 -39.2444 -39.0746 -39.0746 -38.8691 -38.8691
     9.2509   9.2509   9.9406   9.9406  11.4216  11.4216  12.1541  12.1541
    12.9906  12.9906  13.4390  13.4390  14.6209  14.6209  17.5255

          k =-0.5000-0.2944-0.2887 (  3280 PWs)   bands (ev):

   -72.9524 -72.9524 -39.2441 -39.2441 -39.0746 -39.0746 -38.8697 -38.8697
     9.6226   9.6226  10.0344  10.0344  10.9391  10.9391  12.5817  12.5817
    12.6751  12.6751  13.7127  13.7127  14.4767  14.4767  15.9193

     the Fermi energy is    13.6888 ev

!    total energy              =    -737.54236253 Ry
     total all-electron energy =     -6062.420997 Ry
     estimated scf accuracy    <          1.5E-09 Ry
     smearing contrib. (-TS)   =      -0.00019544 Ry
     internal energy E=F+TS    =    -737.54216708 Ry

     The total energy is F=E-TS. E is the sum of the following terms:
     one-electron contribution =    -358.12809192 Ry
     hartree contribution      =     199.45214262 Ry
     xc contribution           =     -75.74685148 Ry
     ewald contribution        =    -282.29987768 Ry
     one-center paw contrib.   =    -220.81948863 Ry

     convergence has been achieved in   9 iterations

     Forces acting on atoms (cartesian axes, Ry/au):

     atom    1 type  1   force =     0.00000000    0.00000000   -0.00393131
     atom    2 type  1   force =     0.00000000    0.00000000    0.00393131
     atom    3 type  2   force =     0.00000000    0.00000000   -0.02023635
     atom    4 type  2   force =     0.00000000    0.00000000    0.02023635

     Total force =     0.029154     Total SCF correction =     0.000015


     Computing stress (Cartesian axis) and pressure

          total   stress  (Ry/bohr**3)                   (kbar)     P=      -11.94
   0.00087964   0.00000000   0.00000000          129.40        0.00        0.00
   0.00000000  -0.00035370   0.00000000            0.00      -52.03        0.00
   0.00000000   0.00000000  -0.00076934            0.00        0.00     -113.17


     Writing all to output data dir ./FeAl.save/ :
     XML data file, charge density, pseudopotentials, collected wavefunctions

     init_run     :      3.85s CPU      3.94s WALL (       1 calls)
     electrons    :     67.28s CPU     69.76s WALL (       1 calls)
     forces       :      1.08s CPU      1.20s WALL (       1 calls)
     stress       :      4.08s CPU      4.35s WALL (       1 calls)

     Called by init_run:
     wfcinit      :      2.20s CPU      2.16s WALL (       1 calls)
     potinit      :      0.57s CPU      0.60s WALL (       1 calls)
     hinit0       :      0.70s CPU      0.69s WALL (       1 calls)

     Called by electrons:
     c_bands      :     54.36s CPU     54.82s WALL (      10 calls)
     sum_band     :      7.39s CPU      8.53s WALL (      10 calls)
     v_of_rho     :      0.60s CPU      0.61s WALL (      10 calls)
     newd         :      2.74s CPU      3.82s WALL (      10 calls)
     PAW_pot      :      2.78s CPU      2.73s WALL (      10 calls)
     mix_rho      :      0.06s CPU      0.06s WALL (      10 calls)

     Called by c_bands:
     init_us_2    :      0.63s CPU      0.63s WALL (     828 calls)
     cegterg      :     53.02s CPU     53.49s WALL (     360 calls)

     Called by *egterg:
     cdiaghg      :      1.01s CPU      0.98s WALL (    1957 calls)
     h_psi        :     26.68s CPU     26.98s WALL (    2029 calls)
     s_psi        :      5.92s CPU      5.76s WALL (    2029 calls)
     g_psi        :      0.16s CPU      0.15s WALL (    1633 calls)

     Called by h_psi:
     h_psi:calbec :      5.80s CPU      5.65s WALL (    2029 calls)
     vloc_psi     :     14.94s CPU     15.55s WALL (    2029 calls)
                                        0.00s GPU  (    2029 calls)
     add_vuspsi   :      5.79s CPU      5.64s WALL (    2029 calls)

     General routines
     calbec       :      9.90s CPU      9.66s WALL (    3001 calls)
     fft          :      0.61s CPU      0.60s WALL (     154 calls)
     ffts         :      0.18s CPU      0.17s WALL (      20 calls)
     fftw         :     14.57s CPU     15.20s WALL (   63328 calls)
     interpolate  :      0.20s CPU      0.19s WALL (      10 calls)

     Parallel routines

     PWSCF        :   1m16.40s CPU   1m19.41s WALL


   This run was terminated on:   5:20: 5  10Jul2026            

=------------------------------------------------------------------------------=
   JOB DONE.
=------------------------------------------------------------------------------=
