
     Program PWSCF v.7.5 starts on 23Jul2026 at  9:21:11 

     This program is part of the open-source Quantum ESPRESSO suite
     for quantum simulation of materials; please cite
         "P. Giannozzi et al., J. Phys.:Condens. Matter 21 395502 (2009);
         "P. Giannozzi et al., J. Phys.:Condens. Matter 29 465901 (2017);
         "P. Giannozzi et al., J. Chem. Phys. 152 154105 (2020);
          URL http://www.quantum-espresso.org", 
     in publications or presentations arising from this work. More details at
     http://www.quantum-espresso.org/quote

     Parallel version (MPI), running on     1 processors

     MPI processes distributed on     1 nodes
     4964 MiB available memory on the printing compute node when the environment starts

     Reading input from espresso.pwi
Warning: card &FCP ignored
Warning: card &RISM ignored

     Current dimensions of program PWSCF are:
     Max number of different atomic species (ntypx) = 10
     Max number of k-points (npk) =  40000
     Max angular momentum in pseudopotentials (lmaxx) =  4
     file Fe.pbe-spn-kjpaw_psl.0.2.1.UPF: wavefunction(s)  3D renormalized
     file Al.pbe-n-kjpaw_psl.0.1.UPF: wavefunction(s)  3S renormalized
     Message from routine setup:
     using ibrav=0 with symmetry is DISCOURAGED, use correct ibrav instead

     Subspace diagonalization in iterative solution of the eigenvalue problem:
     a serial algorithm will be used


     G-vector sticks info
     --------------------
     sticks:   dense  smooth     PW     G-vecs:    dense   smooth      PW
     Sum        2803    1125    331               150619    38107    6101

     Using Slab Decomposition



     bravais-lattice index     =            0
     lattice parameter (alat)  =       4.8780  a.u.
     unit-cell volume          =     330.2631 (a.u.)^3
     number of atoms/cell      =            4
     number of atomic types    =            2
     number of electrons       =        38.00
     number of Kohn-Sham states=           23
     kinetic-energy cutoff     =      90.0000  Ry
     charge density cutoff     =     900.0000  Ry
     scf convergence threshold =      1.0E-09
     mixing beta               =       0.7000
     number of iterations used =            8  plain     mixing
     energy convergence thresh.=      1.0E-04
     force convergence thresh. =      1.0E-03
     press convergence thresh. =      5.0E-01
     Exchange-correlation= SLA  PW   PBX  PBC
                           (   1   4   3   4   0   0   0)
     nstep                     =           50


     celldm(1)=   4.877954  celldm(2)=   0.000000  celldm(3)=   0.000000
     celldm(4)=   0.000000  celldm(5)=   0.000000  celldm(6)=   0.000000

     crystal axes: (cart. coord. in units of alat)
               a(1) = (   1.000000   0.000000   0.000000 )  
               a(2) = (   0.000000   1.642807   0.000000 )  
               a(3) = (   0.000000   0.000000   1.732050 )  

     reciprocal axes: (cart. coord. in units 2 pi/alat)
               b(1) = (  1.000000  0.000000  0.000000 )  
               b(2) = (  0.000000  0.608714  0.000000 )  
               b(3) = (  0.000000  0.000000  0.577351 )  


     PseudoPot. # 1 for Fe read from file:
     /home/yluo/ASE/05_volume_optimization/CMP_pseudos/Fe.pbe-spn-kjpaw_psl.0.2.1.UPF
     MD5 check sum: 4338034a7fd945be4bb7db5fd3b2d142
     Pseudo is Projector augmented-wave + core cor, Zval = 16.0
     Generated using "atomic" code by A. Dal Corso  v.5.0.2 svn rev. 9415
     Shape of augmentation charge: PSQ
     Using radial grid of 1191 points,  6 beta functions with: 
                l(1) =   0
                l(2) =   0
                l(3) =   1
                l(4) =   1
                l(5) =   2
                l(6) =   2
     Q(r) pseudized with 0 coefficients 


     PseudoPot. # 2 for Al read from file:
     /home/yluo/ASE/05_volume_optimization/CMP_pseudos/Al.pbe-n-kjpaw_psl.0.1.UPF
     MD5 check sum: 9111391c6252b599ac5002cf021b5091
     Pseudo is Projector augmented-wave + core cor, Zval =  3.0
     Generated using "atomic" code by A. Dal Corso  v.5.0.2 svn rev. 9415
     Shape of augmentation charge: PSQ
     Using radial grid of 1135 points,  4 beta functions with: 
                l(1) =   0
                l(2) =   0
                l(3) =   1
                l(4) =   1
     Q(r) pseudized with 0 coefficients 


     atomic species   valence    mass     pseudopotential
     Fe               16.00    55.84500     Fe( 1.00)
     Al                3.00    26.98154     Al( 1.00)

      8 Sym. Ops., with inversion, found ( 6 have fractional translation)



   Cartesian axes

     site n.     atom                  positions (alat units)
         1        Fe     tau(   1) = (   0.7500001   1.2321050   1.5631423  )
         2        Fe     tau(   2) = (   0.2500000   0.4107017   0.1689077  )
         3        Al     tau(   3) = (   0.2500000   1.2321050   0.6827453  )
         4        Al     tau(   4) = (   0.7500001   0.4107017   1.0493047  )

     number of k points=   200  Marzari-Vanderbilt smearing, width (Ry)=  0.0050

     Number of k-points >= 100: set verbosity='high' to print them.

     Dense  grid:   150619 G-vectors     FFT dimensions: (  48,  80,  81)

     Smooth grid:    38107 G-vectors     FFT dimensions: (  30,  50,  54)

     Estimated max dynamical RAM per process >     899.00 MB

     Check: negative core charge=   -0.000002

     Initial potential from superposition of free atoms

     starting charge      37.9945, renormalised to      38.0000
     Starting wfcs are   34 randomized atomic wfcs
     Checking if some PAW data can be deallocated... 

     total cpu time spent up to now is       18.5 secs

     Self-consistent Calculation

     iteration #  1     ecut=    90.00 Ry     beta= 0.70
     Davidson diagonalization with overlap
     ethr =  1.00E-02,  avg # of iterations =  2.6

     Threshold (ethr) on eigenvalues was too large:
     Diagonalizing with lowered threshold

     Davidson diagonalization with overlap
     ethr =  5.16E-04,  avg # of iterations =  4.2

     total cpu time spent up to now is       89.0 secs

     total energy              =    -737.45708175 Ry
     estimated scf accuracy    <       0.18003611 Ry

     iteration #  2     ecut=    90.00 Ry     beta= 0.70
     Davidson diagonalization with overlap
     ethr =  4.74E-04,  avg # of iterations =  4.7

     total cpu time spent up to now is      136.1 secs

     total energy              =    -737.26603648 Ry
     estimated scf accuracy    <       2.53038286 Ry

     iteration #  3     ecut=    90.00 Ry     beta= 0.70
     Davidson diagonalization with overlap
     ethr =  4.74E-04,  avg # of iterations =  4.4

     total cpu time spent up to now is      182.5 secs

     total energy              =    -737.54984819 Ry
     estimated scf accuracy    <       0.04342561 Ry

     iteration #  4     ecut=    90.00 Ry     beta= 0.70
     Davidson diagonalization with overlap
     ethr =  1.14E-04,  avg # of iterations =  2.0

     total cpu time spent up to now is      216.7 secs

     total energy              =    -737.55673432 Ry
     estimated scf accuracy    <       0.00061295 Ry

     iteration #  5     ecut=    90.00 Ry     beta= 0.70
     Davidson diagonalization with overlap
     ethr =  1.61E-06,  avg # of iterations =  7.3

     total cpu time spent up to now is      290.3 secs

     total energy              =    -737.55746640 Ry
     estimated scf accuracy    <       0.00007678 Ry

     iteration #  6     ecut=    90.00 Ry     beta= 0.70
     Davidson diagonalization with overlap
     ethr =  2.02E-07,  avg # of iterations =  4.4

     total cpu time spent up to now is      332.3 secs

     total energy              =    -737.55749065 Ry
     estimated scf accuracy    <       0.00000306 Ry

     iteration #  7     ecut=    90.00 Ry     beta= 0.70
     Davidson diagonalization with overlap
     ethr =  8.06E-09,  avg # of iterations =  6.2

     total cpu time spent up to now is      395.7 secs

     total energy              =    -737.55749372 Ry
     estimated scf accuracy    <       0.00000108 Ry

     iteration #  8     ecut=    90.00 Ry     beta= 0.70
     Davidson diagonalization with overlap
     ethr =  2.84E-09,  avg # of iterations =  1.6

     total cpu time spent up to now is      426.1 secs

     total energy              =    -737.55749394 Ry
     estimated scf accuracy    <       0.00000002 Ry

     iteration #  9     ecut=    90.00 Ry     beta= 0.70
     Davidson diagonalization with overlap
     ethr =  5.04E-11,  avg # of iterations =  8.7

     total cpu time spent up to now is      567.1 secs

     total energy              =    -737.55749400 Ry
     estimated scf accuracy    <          2.1E-09 Ry

     iteration # 10     ecut=    90.00 Ry     beta= 0.70
     Davidson diagonalization with overlap
     ethr =  5.60E-12,  avg # of iterations =  4.1

     total cpu time spent up to now is      640.7 secs

     End of self-consistent calculation

     Number of k-points >= 100: set verbosity='high' to print the bands.

     the Fermi energy is    13.6543 ev

!    total energy              =    -737.55749400 Ry
     total all-electron energy =     -6062.436129 Ry
     estimated scf accuracy    <          6.0E-11 Ry
     smearing contrib. (-TS)   =       0.00008188 Ry
     internal energy E=F+TS    =    -737.55757588 Ry

     The total energy is F=E-TS. E is the sum of the following terms:
     one-electron contribution =    -356.64315481 Ry
     hartree contribution      =     198.72991086 Ry
     xc contribution           =     -75.75352555 Ry
     ewald contribution        =    -283.07249207 Ry
     one-center paw contrib.   =    -220.81831431 Ry

     convergence has been achieved in  10 iterations

     Forces acting on atoms (cartesian axes, Ry/au):

     atom    1 type  1   force =     0.00000000    0.00000000    0.00345399
     atom    2 type  1   force =     0.00000000    0.00000000   -0.00345399
     atom    3 type  2   force =     0.00000000    0.00000000    0.00063275
     atom    4 type  2   force =     0.00000000    0.00000000   -0.00063275

     Total force =     0.004966     Total SCF correction =     0.000035


     Computing stress (Cartesian axis) and pressure

          total   stress  (Ry/bohr**3)                   (kbar)     P=       -3.18
   0.00061226   0.00000000   0.00000000           90.07        0.00        0.00
   0.00000000  -0.00010346   0.00000000            0.00      -15.22        0.00
   0.00000000   0.00000000  -0.00057362            0.00        0.00      -84.38


     BFGS Geometry Optimization
     Energy error            =      5.9E-03 Ry
     Gradient error          =      3.5E-03 Ry/Bohr
     Cell gradient error     =      9.0E+01 kbar

     number of scf cycles    =   1
     number of bfgs steps    =   0

     enthalpy           new  =    -737.5574939966 Ry

     new trust radius        =       0.0556331052 bohr
     new conv_thr            =       0.0000000010 Ry

     new unit-cell volume =    329.65476 a.u.^3 (    48.84980 Ang^3 )
     density =      5.63100 g/cm^3

CELL_PARAMETERS (angstrom)
   2.620812542   0.000000000   0.000000000
   0.000000000   4.229612600   0.000000000
   0.000000000   0.000000000   4.406829040

ATOMIC_POSITIONS (angstrom)
Fe               1.9656096098        3.1722088877        3.9788812368
Fe               0.6552032032        1.0574029626        0.4279477845
Al               0.6552032032        3.1722088877        1.7374287652
Al               1.9656096098        1.0574029626        2.6694002561



     Writing config-only to output data dir ./FeAl.save/ :
     XML data file
     NEW-OLD atomic charge density approx. for the potential
     New effective cutoffs (rho, wfc):  925.30   92.64

     Check: negative core charge=   -0.000002

     total cpu time spent up to now is      686.6 secs

     Self-consistent Calculation

     iteration #  1     ecut=    90.00 Ry     beta= 0.70
     Davidson diagonalization with overlap
     ethr =  1.00E-06,  avg # of iterations =  9.9

     total cpu time spent up to now is      815.1 secs

     total energy              =    -737.56205020 Ry
     estimated scf accuracy    <       0.00048136 Ry

     iteration #  2     ecut=    90.00 Ry     beta= 0.70
     Davidson diagonalization with overlap
     ethr =  1.27E-06,  avg # of iterations =  4.1

     total cpu time spent up to now is      870.0 secs

     total energy              =    -737.56158375 Ry
     estimated scf accuracy    <       0.00504104 Ry

     iteration #  3     ecut=    90.00 Ry     beta= 0.70
     Davidson diagonalization with overlap
     ethr =  1.27E-06,  avg # of iterations =  3.9

     total cpu time spent up to now is      917.7 secs

     total energy              =    -737.56221941 Ry
     estimated scf accuracy    <       0.00024811 Ry

     iteration #  4     ecut=    90.00 Ry     beta= 0.70
     Davidson diagonalization with overlap
     ethr =  6.53E-07,  avg # of iterations =  1.9

     total cpu time spent up to now is      955.3 secs

     total energy              =    -737.56224808 Ry
     estimated scf accuracy    <       0.00000587 Ry

     iteration #  5     ecut=    90.00 Ry     beta= 0.70
     Davidson diagonalization with overlap
     ethr =  1.54E-08,  avg # of iterations =  4.5

     total cpu time spent up to now is     1006.9 secs

     total energy              =    -737.56225112 Ry
     estimated scf accuracy    <       0.00000048 Ry

     iteration #  6     ecut=    90.00 Ry     beta= 0.70
     Davidson diagonalization with overlap
     ethr =  1.26E-09,  avg # of iterations =  4.8

     total cpu time spent up to now is     1061.0 secs

     total energy              =    -737.56225132 Ry
     estimated scf accuracy    <       0.00000009 Ry

     iteration #  7     ecut=    90.00 Ry     beta= 0.70
     Davidson diagonalization with overlap
     ethr =  2.27E-10,  avg # of iterations =  3.2

     total cpu time spent up to now is     1101.3 secs

     total energy              =    -737.56225135 Ry
     estimated scf accuracy    <          3.0E-09 Ry

     iteration #  8     ecut=    90.00 Ry     beta= 0.70
     Davidson diagonalization with overlap
     ethr =  7.87E-12,  avg # of iterations =  6.6

     total cpu time spent up to now is     1176.6 secs

     End of self-consistent calculation

     Number of k-points >= 100: set verbosity='high' to print the bands.

     the Fermi energy is    13.6495 ev

!    total energy              =    -737.56225135 Ry
     total all-electron energy =     -6062.440886 Ry
     estimated scf accuracy    <          4.2E-10 Ry
     smearing contrib. (-TS)   =       0.00011274 Ry
     internal energy E=F+TS    =    -737.56236409 Ry

     The total energy is F=E-TS. E is the sum of the following terms:
     one-electron contribution =    -353.49230106 Ry
     hartree contribution      =     197.19021013 Ry
     xc contribution           =     -75.76421554 Ry
     ewald contribution        =    -284.67740052 Ry
     one-center paw contrib.   =    -220.81865710 Ry

     convergence has been achieved in   8 iterations

     Forces acting on atoms (cartesian axes, Ry/au):

     atom    1 type  1   force =     0.00000000    0.00000000    0.00680751
     atom    2 type  1   force =     0.00000000    0.00000000   -0.00680751
     atom    3 type  2   force =     0.00000000    0.00000000    0.00514452
     atom    4 type  2   force =     0.00000000    0.00000000   -0.00514452

     Total force =     0.012067     Total SCF correction =     0.000073


     Computing stress (Cartesian axis) and pressure

          total   stress  (Ry/bohr**3)                   (kbar)     P=       -0.41
   0.00037256   0.00000000   0.00000000           54.81        0.00        0.00
   0.00000000  -0.00002853   0.00000000            0.00       -4.20        0.00
   0.00000000   0.00000000  -0.00035245            0.00        0.00      -51.85

     Energy error            =      4.8E-03 Ry
     Gradient error          =      6.8E-03 Ry/Bohr
     Cell gradient error     =      5.5E+01 kbar

     number of scf cycles    =   2
     number of bfgs steps    =   1

     enthalpy           old  =    -737.5574939966 Ry
     enthalpy           new  =    -737.5622513533 Ry

     CASE: enthalpy          _new < enthalpy          _old

     new trust radius        =       0.0821158660 bohr
     new conv_thr            =            6.8E-11 Ry

     new unit-cell volume =    328.84152 a.u.^3 (    48.72929 Ang^3 )
     density =      5.64493 g/cm^3

CELL_PARAMETERS (angstrom)
   2.680005574   0.000000000   0.000000000
   0.000000000   4.221451503   0.000000000
   0.000000000   0.000000000   4.307175299

ATOMIC_POSITIONS (angstrom)
Fe               2.0100043885        3.1660880662        3.8970819466
Fe               0.6700014628        1.0553626887        0.4100933338
Al               0.6700014628        3.1660880662        1.7042197687
Al               2.0100043885        1.0553626887        2.6029555117



     Writing config-only to output data dir ./FeAl.save/ :
     XML data file
     NEW-OLD atomic charge density approx. for the potential
     New effective cutoffs (rho, wfc):  967.30   96.97

     Check: negative core charge=   -0.000003

     total cpu time spent up to now is     1213.8 secs

     Self-consistent Calculation

     iteration #  1     ecut=    90.00 Ry     beta= 0.70
     Davidson diagonalization with overlap
     c_bands:  1 eigenvalues not converged
     c_bands:  1 eigenvalues not converged
     c_bands:  1 eigenvalues not converged
     c_bands:  1 eigenvalues not converged
     c_bands:  1 eigenvalues not converged
     c_bands:  1 eigenvalues not converged
     ethr =  1.00E-06,  avg # of iterations = 12.7

     total cpu time spent up to now is     1365.2 secs

     total energy              =    -737.56541985 Ry
     estimated scf accuracy    <       0.00094842 Ry

     iteration #  2     ecut=    90.00 Ry     beta= 0.70
     Davidson diagonalization with overlap
     ethr =  2.50E-06,  avg # of iterations =  4.1

     total cpu time spent up to now is     1414.6 secs

     total energy              =    -737.56447302 Ry
     estimated scf accuracy    <       0.01069005 Ry

     iteration #  3     ecut=    90.00 Ry     beta= 0.70
     Davidson diagonalization with overlap
     ethr =  2.50E-06,  avg # of iterations =  3.9

     total cpu time spent up to now is     1462.5 secs

     total energy              =    -737.56578199 Ry
     estimated scf accuracy    <       0.00030302 Ry

     iteration #  4     ecut=    90.00 Ry     beta= 0.70
     Davidson diagonalization with overlap
     ethr =  7.97E-07,  avg # of iterations =  1.9

     total cpu time spent up to now is     1496.6 secs

     total energy              =    -737.56581745 Ry
     estimated scf accuracy    <       0.00000650 Ry

     iteration #  5     ecut=    90.00 Ry     beta= 0.70
     Davidson diagonalization with overlap
     ethr =  1.71E-08,  avg # of iterations =  5.1

     total cpu time spent up to now is     1548.8 secs

     total energy              =    -737.56582175 Ry
     estimated scf accuracy    <       0.00000041 Ry

     iteration #  6     ecut=    90.00 Ry     beta= 0.70
     Davidson diagonalization with overlap
     ethr =  1.09E-09,  avg # of iterations =  5.6

     total cpu time spent up to now is     1605.0 secs

     total energy              =    -737.56582205 Ry
     estimated scf accuracy    <       0.00000011 Ry

     iteration #  7     ecut=    90.00 Ry     beta= 0.70
     Davidson diagonalization with overlap
     ethr =  2.97E-10,  avg # of iterations =  2.2

     total cpu time spent up to now is     1642.8 secs

     total energy              =    -737.56582206 Ry
     estimated scf accuracy    <       0.00000001 Ry

     iteration #  8     ecut=    90.00 Ry     beta= 0.70
     Davidson diagonalization with overlap
     ethr =  3.93E-11,  avg # of iterations =  4.0

     total cpu time spent up to now is     1684.9 secs

     total energy              =    -737.56582207 Ry
     estimated scf accuracy    <          6.3E-10 Ry

     iteration #  9     ecut=    90.00 Ry     beta= 0.70
     Davidson diagonalization with overlap
     ethr =  1.65E-12,  avg # of iterations =  6.5

     total cpu time spent up to now is     1753.4 secs

     total energy              =    -737.56582207 Ry
     estimated scf accuracy    <          1.2E-10 Ry

     iteration # 10     ecut=    90.00 Ry     beta= 0.70
     Davidson diagonalization with overlap
     ethr =  3.15E-13,  avg # of iterations =  3.1

     total cpu time spent up to now is     1788.5 secs

     End of self-consistent calculation

     Number of k-points >= 100: set verbosity='high' to print the bands.

     the Fermi energy is    13.6526 ev

!    total energy              =    -737.56582207 Ry
     total all-electron energy =     -6062.444457 Ry
     estimated scf accuracy    <          1.4E-11 Ry
     smearing contrib. (-TS)   =       0.00009020 Ry
     internal energy E=F+TS    =    -737.56591227 Ry

     The total energy is F=E-TS. E is the sum of the following terms:
     one-electron contribution =    -349.23317197 Ry
     hartree contribution      =     195.11298507 Ry
     xc contribution           =     -75.78172958 Ry
     ewald contribution        =    -286.84457963 Ry
     one-center paw contrib.   =    -220.81941615 Ry

     convergence has been achieved in  10 iterations

     Forces acting on atoms (cartesian axes, Ry/au):

     atom    1 type  1   force =     0.00000000    0.00000000    0.01051486
     atom    2 type  1   force =     0.00000000    0.00000000   -0.01051486
     atom    3 type  2   force =     0.00000000    0.00000000    0.01096164
     atom    4 type  2   force =     0.00000000    0.00000000   -0.01096164

     Total force =     0.021481     Total SCF correction =     0.000002


     Computing stress (Cartesian axis) and pressure

          total   stress  (Ry/bohr**3)                   (kbar)     P=        5.42
   0.00008446   0.00000000   0.00000000           12.42        0.00        0.00
   0.00000000   0.00006349   0.00000000            0.00        9.34        0.00
   0.00000000   0.00000000  -0.00003741            0.00        0.00       -5.50

     Energy error            =      3.6E-03 Ry
     Gradient error          =      1.1E-02 Ry/Bohr
     Cell gradient error     =      1.2E+01 kbar

     number of scf cycles    =   3
     number of bfgs steps    =   2

     enthalpy           old  =    -737.5622513533 Ry
     enthalpy           new  =    -737.5658220705 Ry

     CASE: enthalpy          _new < enthalpy          _old

     new trust radius        =       0.0343098862 bohr
     new conv_thr            =       0.0000000001 Ry

     new unit-cell volume =    329.59470 a.u.^3 (    48.84090 Ang^3 )
     density =      5.63203 g/cm^3

CELL_PARAMETERS (angstrom)
   2.705358708   0.000000000   0.000000000
   0.000000000   4.227222699   0.000000000
   0.000000000   0.000000000   4.270744908

ATOMIC_POSITIONS (angstrom)
Fe               2.0290192411        3.1704164621        3.8730206458
Fe               0.6763397470        1.0568054874        0.3977242444
Al               0.6763397470        3.1704164621        1.6983451101
Al               2.0290192411        1.0568054874        2.5723997801



     Writing config-only to output data dir ./FeAl.save/ :
     XML data file
     NEW-OLD atomic charge density approx. for the potential
     New effective cutoffs (rho, wfc):  983.38   98.63

     Check: negative core charge=   -0.000003

     total cpu time spent up to now is     1822.3 secs

     Self-consistent Calculation

     iteration #  1     ecut=    90.00 Ry     beta= 0.70
     Davidson diagonalization with overlap
     ethr =  1.00E-06,  avg # of iterations = 10.4

     total cpu time spent up to now is     1948.2 secs

     total energy              =    -737.56655485 Ry
     estimated scf accuracy    <       0.00021396 Ry

     iteration #  2     ecut=    90.00 Ry     beta= 0.70
     Davidson diagonalization with overlap
     ethr =  5.63E-07,  avg # of iterations =  4.3

     total cpu time spent up to now is     1995.0 secs

     total energy              =    -737.56635677 Ry
     estimated scf accuracy    <       0.00218803 Ry

     iteration #  3     ecut=    90.00 Ry     beta= 0.70
     Davidson diagonalization with overlap
     ethr =  5.63E-07,  avg # of iterations =  3.9

     total cpu time spent up to now is     2040.5 secs

     total energy              =    -737.56663543 Ry
     estimated scf accuracy    <       0.00010243 Ry

     iteration #  4     ecut=    90.00 Ry     beta= 0.70
     Davidson diagonalization with overlap
     ethr =  2.70E-07,  avg # of iterations =  2.0

     total cpu time spent up to now is     2076.8 secs

     total energy              =    -737.56664571 Ry
     estimated scf accuracy    <       0.00000187 Ry

     iteration #  5     ecut=    90.00 Ry     beta= 0.70
     Davidson diagonalization with overlap
     ethr =  4.92E-09,  avg # of iterations =  5.7

     total cpu time spent up to now is     2149.0 secs

     total energy              =    -737.56664760 Ry
     estimated scf accuracy    <       0.00000025 Ry

     iteration #  6     ecut=    90.00 Ry     beta= 0.70
     Davidson diagonalization with overlap
     ethr =  6.65E-10,  avg # of iterations =  3.6

     total cpu time spent up to now is     2190.1 secs

     total energy              =    -737.56664763 Ry
     estimated scf accuracy    <       0.00000006 Ry

     iteration #  7     ecut=    90.00 Ry     beta= 0.70
     Davidson diagonalization with overlap
     ethr =  1.54E-10,  avg # of iterations =  2.9

     total cpu time spent up to now is     2231.3 secs

     total energy              =    -737.56664764 Ry
     estimated scf accuracy    <          1.9E-09 Ry

     iteration #  8     ecut=    90.00 Ry     beta= 0.70
     Davidson diagonalization with overlap
     ethr =  4.89E-12,  avg # of iterations =  6.7

     total cpu time spent up to now is     2305.4 secs

     total energy              =    -737.56664764 Ry
     estimated scf accuracy    <          2.7E-10 Ry

     iteration #  9     ecut=    90.00 Ry     beta= 0.70
     Davidson diagonalization with overlap
     ethr =  7.11E-13,  avg # of iterations =  4.0

     total cpu time spent up to now is     2343.5 secs

     End of self-consistent calculation

     Number of k-points >= 100: set verbosity='high' to print the bands.

     the Fermi energy is    13.6116 ev

!    total energy              =    -737.56664764 Ry
     total all-electron energy =     -6062.445282 Ry
     estimated scf accuracy    <          1.6E-11 Ry
     smearing contrib. (-TS)   =      -0.00001571 Ry
     internal energy E=F+TS    =    -737.56663193 Ry

     The total energy is F=E-TS. E is the sum of the following terms:
     one-electron contribution =    -348.36019306 Ry
     hartree contribution      =     194.62493924 Ry
     xc contribution           =     -75.77926439 Ry
     ewald contribution        =    -287.23355067 Ry
     one-center paw contrib.   =    -220.81856305 Ry

     convergence has been achieved in   9 iterations

     Forces acting on atoms (cartesian axes, Ry/au):

     atom    1 type  1   force =     0.00000000    0.00000000    0.00989523
     atom    2 type  1   force =     0.00000000    0.00000000   -0.00989523
     atom    3 type  2   force =     0.00000000    0.00000000    0.01171487
     atom    4 type  2   force =     0.00000000    0.00000000   -0.01171487

     Total force =     0.021687     Total SCF correction =     0.000009


     Computing stress (Cartesian axis) and pressure

          total   stress  (Ry/bohr**3)                   (kbar)     P=        1.86
  -0.00003176   0.00000000   0.00000000           -4.67        0.00        0.00
   0.00000000   0.00004222   0.00000000            0.00        6.21        0.00
   0.00000000   0.00000000   0.00002739            0.00        0.00        4.03

     Energy error            =      8.3E-04 Ry
     Gradient error          =      1.2E-02 Ry/Bohr
     Cell gradient error     =      6.2E+00 kbar

     number of scf cycles    =   4
     number of bfgs steps    =   3

     enthalpy           old  =    -737.5658220705 Ry
     enthalpy           new  =    -737.5666476420 Ry

     CASE: enthalpy          _new < enthalpy          _old

     new trust radius        =       0.0332267237 bohr
     new conv_thr            =            8.3E-11 Ry

     new unit-cell volume =    330.49958 a.u.^3 (    48.97499 Ang^3 )
     density =      5.61661 g/cm^3

CELL_PARAMETERS (angstrom)
   2.730115381   0.000000000   0.000000000
   0.000000000   4.237390650   0.000000000
   0.000000000   0.000000000   4.233453626

ATOMIC_POSITIONS (angstrom)
Fe               2.0475867474        3.1780424245        3.8554878407
Fe               0.6825289158        1.0593474748        0.3779657676
Al               0.6825289158        3.1780424245        1.7008869686
Al               2.0475867474        1.0593474748        2.5325666397



     Writing config-only to output data dir ./FeAl.save/ :
     XML data file
     NEW-OLD atomic charge density approx. for the potential
     New effective cutoffs (rho, wfc): 1000.29  100.37

     Check: negative core charge=   -0.000003

     total cpu time spent up to now is     2378.0 secs

     Self-consistent Calculation

     iteration #  1     ecut=    90.00 Ry     beta= 0.70
     Davidson diagonalization with overlap
     c_bands:  1 eigenvalues not converged
     ethr =  1.00E-06,  avg # of iterations = 12.2

     total cpu time spent up to now is     2532.8 secs

     total energy              =    -737.56750729 Ry
     estimated scf accuracy    <       0.00037363 Ry

     iteration #  2     ecut=    90.00 Ry     beta= 0.70
     Davidson diagonalization with overlap
     ethr =  9.83E-07,  avg # of iterations =  3.7

     total cpu time spent up to now is     2578.2 secs

     total energy              =    -737.56724873 Ry
     estimated scf accuracy    <       0.00210544 Ry

     iteration #  3     ecut=    90.00 Ry     beta= 0.70
     Davidson diagonalization with overlap
     ethr =  9.83E-07,  avg # of iterations =  3.7

     total cpu time spent up to now is     2622.8 secs

     total energy              =    -737.56756162 Ry
     estimated scf accuracy    <       0.00040238 Ry

     iteration #  4     ecut=    90.00 Ry     beta= 0.70
     Davidson diagonalization with overlap
     ethr =  9.83E-07,  avg # of iterations =  1.9

     total cpu time spent up to now is     2655.7 secs

     total energy              =    -737.56759798 Ry
     estimated scf accuracy    <       0.00000527 Ry

     iteration #  5     ecut=    90.00 Ry     beta= 0.70
     Davidson diagonalization with overlap
     ethr =  1.39E-08,  avg # of iterations =  5.5

     total cpu time spent up to now is     2713.4 secs

     total energy              =    -737.56760232 Ry
     estimated scf accuracy    <       0.00000178 Ry

     iteration #  6     ecut=    90.00 Ry     beta= 0.70
     Davidson diagonalization with overlap
     ethr =  4.69E-09,  avg # of iterations =  1.8

     total cpu time spent up to now is     2744.9 secs

     total energy              =    -737.56760247 Ry
     estimated scf accuracy    <       0.00000015 Ry

     iteration #  7     ecut=    90.00 Ry     beta= 0.70
     Davidson diagonalization with overlap
     ethr =  3.89E-10,  avg # of iterations =  5.4

     total cpu time spent up to now is     2798.2 secs

     total energy              =    -737.56760257 Ry
     estimated scf accuracy    <       0.00000002 Ry

     iteration #  8     ecut=    90.00 Ry     beta= 0.70
     Davidson diagonalization with overlap
     ethr =  5.02E-11,  avg # of iterations =  3.5

     total cpu time spent up to now is     2838.3 secs

     total energy              =    -737.56760258 Ry
     estimated scf accuracy    <          5.5E-10 Ry

     iteration #  9     ecut=    90.00 Ry     beta= 0.70
     Davidson diagonalization with overlap
     ethr =  1.44E-12,  avg # of iterations =  6.8

     total cpu time spent up to now is     2908.3 secs

     End of self-consistent calculation

     Number of k-points >= 100: set verbosity='high' to print the bands.

     the Fermi energy is    13.5712 ev

!    total energy              =    -737.56760258 Ry
     total all-electron energy =     -6062.446237 Ry
     estimated scf accuracy    <          3.7E-11 Ry
     smearing contrib. (-TS)   =      -0.00006022 Ry
     internal energy E=F+TS    =    -737.56754236 Ry

     The total energy is F=E-TS. E is the sum of the following terms:
     one-electron contribution =    -347.88435451 Ry
     hartree contribution      =     194.32890864 Ry
     xc contribution           =     -75.77441250 Ry
     ewald contribution        =    -287.42028232 Ry
     one-center paw contrib.   =    -220.81740167 Ry

     convergence has been achieved in   9 iterations

     Forces acting on atoms (cartesian axes, Ry/au):

     atom    1 type  1   force =     0.00000000    0.00000000    0.00718964
     atom    2 type  1   force =     0.00000000    0.00000000   -0.00718964
     atom    3 type  2   force =     0.00000000    0.00000000    0.01067537
     atom    4 type  2   force =     0.00000000    0.00000000   -0.01067537

     Total force =     0.018202     Total SCF correction =     0.000020


     Computing stress (Cartesian axis) and pressure

          total   stress  (Ry/bohr**3)                   (kbar)     P=       -3.60
  -0.00010696   0.00000000   0.00000000          -15.73        0.00        0.00
   0.00000000  -0.00001025   0.00000000            0.00       -1.51        0.00
   0.00000000   0.00000000   0.00004378            0.00        0.00        6.44

     Energy error            =      9.5E-04 Ry
     Gradient error          =      1.1E-02 Ry/Bohr
     Cell gradient error     =      1.6E+01 kbar

     number of scf cycles    =   5
     number of bfgs steps    =   4

     enthalpy           old  =    -737.5666476420 Ry
     enthalpy           new  =    -737.5676025763 Ry

     CASE: enthalpy          _new < enthalpy          _old

     new trust radius        =       0.0494558856 bohr
     new conv_thr            =            9.5E-11 Ry

     new unit-cell volume =    330.50118 a.u.^3 (    48.97522 Ang^3 )
     density =      5.61658 g/cm^3

CELL_PARAMETERS (angstrom)
   2.750033429   0.000000000   0.000000000
   0.000000000   4.244670785   0.000000000
   0.000000000   0.000000000   4.195603346

ATOMIC_POSITIONS (angstrom)
Fe               2.0625252852        3.1835025241        3.8432807475
Fe               0.6875084284        1.0611675080        0.3523225808
Al               0.6875084284        3.1835025241        1.7116166913
Al               2.0625252852        1.0611675080        2.4839866370



     Writing config-only to output data dir ./FeAl.save/ :
     XML data file
     NEW-OLD atomic charge density approx. for the potential
     New effective cutoffs (rho, wfc): 1017.99  102.19

     Check: negative core charge=   -0.000004

     total cpu time spent up to now is     2942.2 secs

     Self-consistent Calculation

     iteration #  1     ecut=    90.00 Ry     beta= 0.70
     Davidson diagonalization with overlap
     c_bands:  1 eigenvalues not converged
     c_bands:  1 eigenvalues not converged
     c_bands:  1 eigenvalues not converged
     c_bands:  1 eigenvalues not converged
     c_bands:  1 eigenvalues not converged
     ethr =  1.00E-06,  avg # of iterations = 13.0

     total cpu time spent up to now is     3092.8 secs

     total energy              =    -737.56846230 Ry
     estimated scf accuracy    <       0.00047912 Ry

     iteration #  2     ecut=    90.00 Ry     beta= 0.70
     Davidson diagonalization with overlap
     ethr =  1.26E-06,  avg # of iterations =  2.1

     total cpu time spent up to now is     3127.0 secs

     total energy              =    -737.56838552 Ry
     estimated scf accuracy    <       0.00028071 Ry

     iteration #  3     ecut=    90.00 Ry     beta= 0.70
     Davidson diagonalization with overlap
     ethr =  7.39E-07,  avg # of iterations =  3.6

     total cpu time spent up to now is     3168.8 secs

     total energy              =    -737.56834111 Ry
     estimated scf accuracy    <       0.00149443 Ry

     iteration #  4     ecut=    90.00 Ry     beta= 0.70
     Davidson diagonalization with overlap
     ethr =  7.39E-07,  avg # of iterations =  3.2

     total cpu time spent up to now is     3209.3 secs

     total energy              =    -737.56849847 Ry
     estimated scf accuracy    <       0.00000302 Ry

     iteration #  5     ecut=    90.00 Ry     beta= 0.70
     Davidson diagonalization with overlap
     ethr =  7.94E-09,  avg # of iterations =  6.1

     total cpu time spent up to now is     3277.7 secs

     total energy              =    -737.56850164 Ry
     estimated scf accuracy    <       0.00000293 Ry

     iteration #  6     ecut=    90.00 Ry     beta= 0.70
     Davidson diagonalization with overlap
     ethr =  7.71E-09,  avg # of iterations =  2.0

     total cpu time spent up to now is     3311.6 secs

     total energy              =    -737.56850197 Ry
     estimated scf accuracy    <       0.00000005 Ry

     iteration #  7     ecut=    90.00 Ry     beta= 0.70
     Davidson diagonalization with overlap
     ethr =  1.34E-10,  avg # of iterations =  6.9

     total cpu time spent up to now is     3391.1 secs

     total energy              =    -737.56850205 Ry
     estimated scf accuracy    <       0.00000009 Ry

     iteration #  8     ecut=    90.00 Ry     beta= 0.70
     Davidson diagonalization with overlap
     ethr =  1.34E-10,  avg # of iterations =  2.2

     total cpu time spent up to now is     3428.4 secs

     total energy              =    -737.56850206 Ry
     estimated scf accuracy    <          2.5E-09 Ry

     iteration #  9     ecut=    90.00 Ry     beta= 0.70
     Davidson diagonalization with overlap
     ethr =  6.55E-12,  avg # of iterations =  4.4

     total cpu time spent up to now is     3474.9 secs

     total energy              =    -737.56850206 Ry
     estimated scf accuracy    <          3.8E-10 Ry

     iteration # 10     ecut=    90.00 Ry     beta= 0.70
     Davidson diagonalization with overlap
     ethr =  1.01E-12,  avg # of iterations =  4.0

     total cpu time spent up to now is     3521.6 secs

     End of self-consistent calculation

     Number of k-points >= 100: set verbosity='high' to print the bands.

     the Fermi energy is    13.5809 ev

!    total energy              =    -737.56850206 Ry
     total all-electron energy =     -6062.447137 Ry
     estimated scf accuracy    <          2.8E-12 Ry
     smearing contrib. (-TS)   =       0.00007260 Ry
     internal energy E=F+TS    =    -737.56857466 Ry

     The total energy is F=E-TS. E is the sum of the following terms:
     one-electron contribution =    -347.35127660 Ry
     hartree contribution      =     194.06640438 Ry
     xc contribution           =     -75.77507090 Ry
     ewald contribution        =    -287.69158746 Ry
     one-center paw contrib.   =    -220.81704408 Ry

     convergence has been achieved in  10 iterations

     Forces acting on atoms (cartesian axes, Ry/au):

     atom    1 type  1   force =     0.00000000    0.00000000    0.00235706
     atom    2 type  1   force =     0.00000000    0.00000000   -0.00235706
     atom    3 type  2   force =     0.00000000    0.00000000    0.00793312
     atom    4 type  2   force =     0.00000000    0.00000000   -0.00793312

     Total force =     0.011704     Total SCF correction =     0.000001


     Computing stress (Cartesian axis) and pressure

          total   stress  (Ry/bohr**3)                   (kbar)     P=       -5.59
  -0.00012246   0.00000000   0.00000000          -18.01        0.00        0.00
   0.00000000  -0.00003988   0.00000000            0.00       -5.87        0.00
   0.00000000   0.00000000   0.00004833            0.00        0.00        7.11

     Energy error            =      9.0E-04 Ry
     Gradient error          =      7.9E-03 Ry/Bohr
     Cell gradient error     =      1.8E+01 kbar

     number of scf cycles    =   6
     number of bfgs steps    =   5

     enthalpy           old  =    -737.5676025763 Ry
     enthalpy           new  =    -737.5685020592 Ry

     CASE: enthalpy          _new < enthalpy          _old

     new trust radius        =       0.0396689473 bohr
     new conv_thr            =            7.9E-11 Ry

     new unit-cell volume =    329.74125 a.u.^3 (    48.86261 Ang^3 )
     density =      5.62953 g/cm^3

CELL_PARAMETERS (angstrom)
   2.753198234   0.000000000   0.000000000
   0.000000000   4.244860450   0.000000000
   0.000000000   0.000000000   4.180957797

ATOMIC_POSITIONS (angstrom)
Fe               2.0648988892        3.1836447731        3.8448964778
Fe               0.6882996297        1.0612149244        0.3360613012
Al               0.6882996297        3.1836447731        1.7265605952
Al               2.0648988892        1.0612149244        2.4543971838



     Writing config-only to output data dir ./FeAl.save/ :
     XML data file
     NEW-OLD atomic charge density approx. for the potential
     New effective cutoffs (rho, wfc): 1025.01  102.90

     Check: negative core charge=   -0.000004

     total cpu time spent up to now is     3559.0 secs

     Self-consistent Calculation

     iteration #  1     ecut=    90.00 Ry     beta= 0.70
     Davidson diagonalization with overlap
     c_bands:  1 eigenvalues not converged
     ethr =  1.00E-06,  avg # of iterations = 10.8

     total cpu time spent up to now is     3696.8 secs

     total energy              =    -737.56890934 Ry
     estimated scf accuracy    <       0.00021378 Ry

     iteration #  2     ecut=    90.00 Ry     beta= 0.70
     Davidson diagonalization with overlap
     ethr =  5.63E-07,  avg # of iterations =  3.4

     total cpu time spent up to now is     3739.4 secs

     total energy              =    -737.56879367 Ry
     estimated scf accuracy    <       0.00073615 Ry

     iteration #  3     ecut=    90.00 Ry     beta= 0.70
     Davidson diagonalization with overlap
     ethr =  5.63E-07,  avg # of iterations =  3.5

     total cpu time spent up to now is     3779.7 secs

     total energy              =    -737.56891027 Ry
     estimated scf accuracy    <       0.00030324 Ry

     iteration #  4     ecut=    90.00 Ry     beta= 0.70
     Davidson diagonalization with overlap
     ethr =  5.63E-07,  avg # of iterations =  2.0

     total cpu time spent up to now is     3813.2 secs

     total energy              =    -737.56893900 Ry
     estimated scf accuracy    <       0.00000227 Ry

     iteration #  5     ecut=    90.00 Ry     beta= 0.70
     Davidson diagonalization with overlap
     ethr =  5.98E-09,  avg # of iterations =  6.0

     total cpu time spent up to now is     3877.9 secs

     total energy              =    -737.56894151 Ry
     estimated scf accuracy    <       0.00000160 Ry

     iteration #  6     ecut=    90.00 Ry     beta= 0.70
     Davidson diagonalization with overlap
     ethr =  4.21E-09,  avg # of iterations =  2.0

     total cpu time spent up to now is     3912.0 secs

     total energy              =    -737.56894176 Ry
     estimated scf accuracy    <       0.00000003 Ry

     iteration #  7     ecut=    90.00 Ry     beta= 0.70
     Davidson diagonalization with overlap
     ethr =  7.54E-11,  avg # of iterations =  6.5

     total cpu time spent up to now is     3978.5 secs

     total energy              =    -737.56894180 Ry
     estimated scf accuracy    <          9.1E-09 Ry

     iteration #  8     ecut=    90.00 Ry     beta= 0.70
     Davidson diagonalization with overlap
     ethr =  2.39E-11,  avg # of iterations =  2.1

     total cpu time spent up to now is     4011.6 secs

     total energy              =    -737.56894180 Ry
     estimated scf accuracy    <          6.5E-10 Ry

     iteration #  9     ecut=    90.00 Ry     beta= 0.70
     Davidson diagonalization with overlap
     ethr =  1.70E-12,  avg # of iterations =  5.7

     total cpu time spent up to now is     4069.2 secs

     total energy              =    -737.56894180 Ry
     estimated scf accuracy    <          8.0E-11 Ry

     iteration # 10     ecut=    90.00 Ry     beta= 0.70
     Davidson diagonalization with overlap
     ethr =  2.11E-13,  avg # of iterations =  4.1

     total cpu time spent up to now is     4110.4 secs

     End of self-consistent calculation

     Number of k-points >= 100: set verbosity='high' to print the bands.

     the Fermi energy is    13.6314 ev

!    total energy              =    -737.56894180 Ry
     total all-electron energy =     -6062.447576 Ry
     estimated scf accuracy    <          1.3E-12 Ry
     smearing contrib. (-TS)   =       0.00008047 Ry
     internal energy E=F+TS    =    -737.56902227 Ry

     The total energy is F=E-TS. E is the sum of the following terms:
     one-electron contribution =    -347.15898925 Ry
     hartree contribution      =     194.02436612 Ry
     xc contribution           =     -75.77940119 Ry
     ewald contribution        =    -287.83740579 Ry
     one-center paw contrib.   =    -220.81759215 Ry

     convergence has been achieved in  10 iterations

     Forces acting on atoms (cartesian axes, Ry/au):

     atom    1 type  1   force =     0.00000000    0.00000000   -0.00087367
     atom    2 type  1   force =     0.00000000    0.00000000    0.00087367
     atom    3 type  2   force =     0.00000000    0.00000000    0.00433483
     atom    4 type  2   force =     0.00000000    0.00000000   -0.00433483

     Total force =     0.006254     Total SCF correction =     0.000004


     Computing stress (Cartesian axis) and pressure

          total   stress  (Ry/bohr**3)                   (kbar)     P=       -3.66
  -0.00007721   0.00000000   0.00000000          -11.36        0.00        0.00
   0.00000000  -0.00002538   0.00000000            0.00       -3.73        0.00
   0.00000000   0.00000000   0.00002791            0.00        0.00        4.11

     Energy error            =      4.4E-04 Ry
     Gradient error          =      4.3E-03 Ry/Bohr
     Cell gradient error     =      1.1E+01 kbar

     number of scf cycles    =   7
     number of bfgs steps    =   6

     enthalpy           old  =    -737.5685020592 Ry
     enthalpy           new  =    -737.5689417983 Ry

     CASE: enthalpy          _new < enthalpy          _old

     new trust radius        =       0.0186365753 bohr
     new conv_thr            =            4.3E-11 Ry

     new unit-cell volume =    329.02482 a.u.^3 (    48.75645 Ang^3 )
     density =      5.64179 g/cm^3

CELL_PARAMETERS (angstrom)
   2.746995208   0.000000000   0.000000000
   0.000000000   4.242791606   0.000000000
   0.000000000   0.000000000   4.183333238

ATOMIC_POSITIONS (angstrom)
Fe               2.0602466195        3.1820931403        3.8516546603
Fe               0.6867488731        1.0606977134        0.3316785595
Al               0.6867488731        3.1820931403        1.7374092070
Al               2.0602466195        1.0606977134        2.4459240129



     Writing config-only to output data dir ./FeAl.save/ :
     XML data file
     NEW-OLD atomic charge density approx. for the potential
     New effective cutoffs (rho, wfc): 1023.92  102.79

     Check: negative core charge=   -0.000004

     total cpu time spent up to now is     4143.5 secs

     Self-consistent Calculation

     iteration #  1     ecut=    90.00 Ry     beta= 0.70
     Davidson diagonalization with overlap
     ethr =  1.00E-06,  avg # of iterations =  7.7

     total cpu time spent up to now is     4229.7 secs

     total energy              =    -737.56901831 Ry
     estimated scf accuracy    <       0.00007701 Ry

     iteration #  2     ecut=    90.00 Ry     beta= 0.70
     Davidson diagonalization with overlap
     ethr =  2.03E-07,  avg # of iterations =  5.0

     total cpu time spent up to now is     4280.7 secs

     total energy              =    -737.56892390 Ry
     estimated scf accuracy    <       0.00136190 Ry

     iteration #  3     ecut=    90.00 Ry     beta= 0.70
     Davidson diagonalization with overlap
     ethr =  2.03E-07,  avg # of iterations =  4.0

     total cpu time spent up to now is     4325.7 secs

     total energy              =    -737.56906895 Ry
     estimated scf accuracy    <       0.00000470 Ry

     iteration #  4     ecut=    90.00 Ry     beta= 0.70
     Davidson diagonalization with overlap
     ethr =  1.24E-08,  avg # of iterations =  4.4

     total cpu time spent up to now is     4375.0 secs

     total energy              =    -737.56907040 Ry
     estimated scf accuracy    <       0.00000042 Ry

     iteration #  5     ecut=    90.00 Ry     beta= 0.70
     Davidson diagonalization with overlap
     ethr =  1.10E-09,  avg # of iterations =  4.8

     total cpu time spent up to now is     4429.5 secs

     total energy              =    -737.56907058 Ry
     estimated scf accuracy    <       0.00000002 Ry

     iteration #  6     ecut=    90.00 Ry     beta= 0.70
     Davidson diagonalization with overlap
     ethr =  5.32E-11,  avg # of iterations =  5.3

     total cpu time spent up to now is     4486.3 secs

     total energy              =    -737.56907060 Ry
     estimated scf accuracy    <          2.9E-09 Ry

     iteration #  7     ecut=    90.00 Ry     beta= 0.70
     Davidson diagonalization with overlap
     ethr =  7.60E-12,  avg # of iterations =  4.2

     total cpu time spent up to now is     4532.2 secs

     total energy              =    -737.56907060 Ry
     estimated scf accuracy    <          9.0E-11 Ry

     iteration #  8     ecut=    90.00 Ry     beta= 0.70
     Davidson diagonalization with overlap
     ethr =  2.36E-13,  avg # of iterations =  6.8

     total cpu time spent up to now is     4611.6 secs

     End of self-consistent calculation

     Number of k-points >= 100: set verbosity='high' to print the bands.

     the Fermi energy is    13.6732 ev

!    total energy              =    -737.56907060 Ry
     total all-electron energy =     -6062.447705 Ry
     estimated scf accuracy    <          9.2E-12 Ry
     smearing contrib. (-TS)   =       0.00009415 Ry
     internal energy E=F+TS    =    -737.56916475 Ry

     The total energy is F=E-TS. E is the sum of the following terms:
     one-electron contribution =    -347.21686460 Ry
     hartree contribution      =     194.10257252 Ry
     xc contribution           =     -75.78292731 Ry
     ewald contribution        =    -287.85359697 Ry
     one-center paw contrib.   =    -220.81834838 Ry

     convergence has been achieved in   8 iterations

     Forces acting on atoms (cartesian axes, Ry/au):

     atom    1 type  1   force =     0.00000000    0.00000000   -0.00170393
     atom    2 type  1   force =     0.00000000    0.00000000    0.00170393
     atom    3 type  2   force =     0.00000000    0.00000000    0.00153287
     atom    4 type  2   force =     0.00000000    0.00000000   -0.00153287

     Total force =     0.003241     Total SCF correction =     0.000001


     Computing stress (Cartesian axis) and pressure

          total   stress  (Ry/bohr**3)                   (kbar)     P=       -1.08
  -0.00002086   0.00000000   0.00000000           -3.07        0.00        0.00
   0.00000000  -0.00000434   0.00000000            0.00       -0.64        0.00
   0.00000000   0.00000000   0.00000315            0.00        0.00        0.46

     Energy error            =      1.3E-04 Ry
     Gradient error          =      1.7E-03 Ry/Bohr
     Cell gradient error     =      3.1E+00 kbar

     number of scf cycles    =   8
     number of bfgs steps    =   7

     enthalpy           old  =    -737.5689417983 Ry
     enthalpy           new  =    -737.5690705979 Ry

     CASE: enthalpy          _new < enthalpy          _old

     new trust radius        =       0.0051763399 bohr
     new conv_thr            =            1.3E-11 Ry

     new unit-cell volume =    328.78180 a.u.^3 (    48.72044 Ang^3 )
     density =      5.64596 g/cm^3

CELL_PARAMETERS (angstrom)
   2.743075657   0.000000000   0.000000000
   0.000000000   4.242002586   0.000000000
   0.000000000   0.000000000   4.186995148

ATOMIC_POSITIONS (angstrom)
Fe               2.0573069557        3.1815013758        3.8538734024
Fe               0.6857689852        1.0605004586        0.3331217281
Al               0.6857689852        3.1815013758        1.7401806526
Al               2.0573069557        1.0605004586        2.4468144779



     Writing config-only to output data dir ./FeAl.save/ :
     XML data file
     NEW-OLD atomic charge density approx. for the potential
     New effective cutoffs (rho, wfc): 1022.19  102.61

     Check: negative core charge=   -0.000004

     total cpu time spent up to now is     4643.8 secs

     Self-consistent Calculation

     iteration #  1     ecut=    90.00 Ry     beta= 0.70
     Davidson diagonalization with overlap
     ethr =  1.00E-06,  avg # of iterations =  4.9

     Threshold (ethr) on eigenvalues was too large:
     Diagonalizing with lowered threshold

     Davidson diagonalization with overlap
     ethr =  4.43E-08,  avg # of iterations =  4.8

     total cpu time spent up to now is     4749.2 secs

     total energy              =    -737.56907621 Ry
     estimated scf accuracy    <       0.00001793 Ry

     iteration #  2     ecut=    90.00 Ry     beta= 0.70
     Davidson diagonalization with overlap
     ethr =  4.72E-08,  avg # of iterations =  4.3

     total cpu time spent up to now is     4798.6 secs

     total energy              =    -737.56905441 Ry
     estimated scf accuracy    <       0.00028357 Ry

     iteration #  3     ecut=    90.00 Ry     beta= 0.70
     Davidson diagonalization with overlap
     ethr =  4.72E-08,  avg # of iterations =  4.0

     total cpu time spent up to now is     4843.4 secs

     total energy              =    -737.56908635 Ry
     estimated scf accuracy    <       0.00000282 Ry

     iteration #  4     ecut=    90.00 Ry     beta= 0.70
     Davidson diagonalization with overlap
     ethr =  7.41E-09,  avg # of iterations =  2.0

     total cpu time spent up to now is     4879.7 secs

     total energy              =    -737.56908678 Ry
     estimated scf accuracy    <       0.00000006 Ry

     iteration #  5     ecut=    90.00 Ry     beta= 0.70
     Davidson diagonalization with overlap
     ethr =  1.58E-10,  avg # of iterations =  6.6

     total cpu time spent up to now is     4945.3 secs

     total energy              =    -737.56908685 Ry
     estimated scf accuracy    <          4.4E-09 Ry

     iteration #  6     ecut=    90.00 Ry     beta= 0.70
     Davidson diagonalization with overlap
     ethr =  1.15E-11,  avg # of iterations =  4.8

     total cpu time spent up to now is     4991.4 secs

     total energy              =    -737.56908685 Ry
     estimated scf accuracy    <          8.5E-10 Ry

     iteration #  7     ecut=    90.00 Ry     beta= 0.70
     Davidson diagonalization with overlap
     ethr =  2.24E-12,  avg # of iterations =  3.5

     total cpu time spent up to now is     5034.4 secs

     total energy              =    -737.56908685 Ry
     estimated scf accuracy    <          6.7E-11 Ry

     iteration #  8     ecut=    90.00 Ry     beta= 0.70
     Davidson diagonalization with overlap
     ethr =  1.77E-13,  avg # of iterations =  5.0

     total cpu time spent up to now is     5084.7 secs

     End of self-consistent calculation

     Number of k-points >= 100: set verbosity='high' to print the bands.

     the Fermi energy is    13.6853 ev

!    total energy              =    -737.56908685 Ry
     total all-electron energy =     -6062.447721 Ry
     estimated scf accuracy    <          4.7E-12 Ry
     smearing contrib. (-TS)   =       0.00010462 Ry
     internal energy E=F+TS    =    -737.56919148 Ry

     The total energy is F=E-TS. E is the sum of the following terms:
     one-electron contribution =    -347.22316392 Ry
     hartree contribution      =     194.12182601 Ry
     xc contribution           =     -75.78407546 Ry
     ewald contribution        =    -287.86510259 Ry
     one-center paw contrib.   =    -220.81867552 Ry

     convergence has been achieved in   8 iterations

     Forces acting on atoms (cartesian axes, Ry/au):

     atom    1 type  1   force =     0.00000000    0.00000000   -0.00119138
     atom    2 type  1   force =     0.00000000    0.00000000    0.00119138
     atom    3 type  2   force =     0.00000000    0.00000000    0.00055844
     atom    4 type  2   force =     0.00000000    0.00000000   -0.00055844

     Total force =     0.001861     Total SCF correction =     0.000003


     Computing stress (Cartesian axis) and pressure

          total   stress  (Ry/bohr**3)                   (kbar)     P=       -0.01
   0.00000045   0.00000000   0.00000000            0.07        0.00        0.00
   0.00000000   0.00000170   0.00000000            0.00        0.25        0.00
   0.00000000   0.00000000  -0.00000238            0.00        0.00       -0.35

     Energy error            =      1.6E-05 Ry
     Gradient error          =      1.2E-03 Ry/Bohr
     Cell gradient error     =      3.5E-01 kbar

     number of scf cycles    =   9
     number of bfgs steps    =   8

     enthalpy           old  =    -737.5690705979 Ry
     enthalpy           new  =    -737.5690868546 Ry

     CASE: enthalpy          _new < enthalpy          _old

     new trust radius        =       0.0031356858 bohr
     new conv_thr            =            1.0E-11 Ry

     new unit-cell volume =    328.73736 a.u.^3 (    48.71385 Ang^3 )
     density =      5.64672 g/cm^3

CELL_PARAMETERS (angstrom)
   2.741547368   0.000000000   0.000000000
   0.000000000   4.241906335   0.000000000
   0.000000000   0.000000000   4.188857981

ATOMIC_POSITIONS (angstrom)
Fe               2.0561607387        3.1814291871        3.8539279540
Fe               0.6853869129        1.0604763957        0.3349300086
Al               0.6853869129        3.1814291871        1.7406465157
Al               2.0561607387        1.0604763957        2.4482114469



     Writing config-only to output data dir ./FeAl.save/ :
     XML data file
     NEW-OLD atomic charge density approx. for the potential
     New effective cutoffs (rho, wfc): 1021.31  102.52

     Check: negative core charge=   -0.000004

     total cpu time spent up to now is     5120.8 secs

     Self-consistent Calculation

     iteration #  1     ecut=    90.00 Ry     beta= 0.70
     Davidson diagonalization with overlap
     ethr =  1.00E-06,  avg # of iterations =  5.4

     Threshold (ethr) on eigenvalues was too large:
     Diagonalizing with lowered threshold

     Davidson diagonalization with overlap
     ethr =  2.19E-08,  avg # of iterations =  5.3

     total cpu time spent up to now is     5235.8 secs

     total energy              =    -737.56908843 Ry
     estimated scf accuracy    <       0.00000678 Ry

     iteration #  2     ecut=    90.00 Ry     beta= 0.70
     Davidson diagonalization with overlap
     ethr =  1.78E-08,  avg # of iterations =  3.9

     total cpu time spent up to now is     5277.2 secs

     total energy              =    -737.56908293 Ry
     estimated scf accuracy    <       0.00005430 Ry

     iteration #  3     ecut=    90.00 Ry     beta= 0.70
     Davidson diagonalization with overlap
     ethr =  1.78E-08,  avg # of iterations =  3.8

     total cpu time spent up to now is     5319.5 secs

     total energy              =    -737.56909047 Ry
     estimated scf accuracy    <       0.00000477 Ry

     iteration #  4     ecut=    90.00 Ry     beta= 0.70
     Davidson diagonalization with overlap
     ethr =  1.25E-08,  avg # of iterations =  2.0

     total cpu time spent up to now is     5353.4 secs

     total energy              =    -737.56909093 Ry
     estimated scf accuracy    <       0.00000006 Ry

     iteration #  5     ecut=    90.00 Ry     beta= 0.70
     Davidson diagonalization with overlap
     ethr =  1.56E-10,  avg # of iterations =  5.2

     total cpu time spent up to now is     5407.0 secs

     total energy              =    -737.56909097 Ry
     estimated scf accuracy    <       0.00000002 Ry

     iteration #  6     ecut=    90.00 Ry     beta= 0.70
     Davidson diagonalization with overlap
     ethr =  5.62E-11,  avg # of iterations =  1.9

     total cpu time spent up to now is     5439.9 secs

     total energy              =    -737.56909098 Ry
     estimated scf accuracy    <          8.8E-10 Ry

     iteration #  7     ecut=    90.00 Ry     beta= 0.70
     Davidson diagonalization with overlap
     ethr =  2.33E-12,  avg # of iterations =  6.5

     total cpu time spent up to now is     5510.0 secs

     total energy              =    -737.56909098 Ry
     estimated scf accuracy    <          2.0E-10 Ry

     iteration #  8     ecut=    90.00 Ry     beta= 0.70
     Davidson diagonalization with overlap
     ethr =  5.24E-13,  avg # of iterations =  2.5

     total cpu time spent up to now is     5547.3 secs

     End of self-consistent calculation

     Number of k-points >= 100: set verbosity='high' to print the bands.

     the Fermi energy is    13.6864 ev

!    total energy              =    -737.56909098 Ry
     total all-electron energy =     -6062.447726 Ry
     estimated scf accuracy    <          1.2E-12 Ry
     smearing contrib. (-TS)   =       0.00010794 Ry
     internal energy E=F+TS    =    -737.56919891 Ry

     The total energy is F=E-TS. E is the sum of the following terms:
     one-electron contribution =    -347.19180639 Ry
     hartree contribution      =     194.10856355 Ry
     xc contribution           =     -75.78420844 Ry
     ewald contribution        =    -287.88297167 Ry
     one-center paw contrib.   =    -220.81877596 Ry

     convergence has been achieved in   8 iterations

     Forces acting on atoms (cartesian axes, Ry/au):

     atom    1 type  1   force =     0.00000000    0.00000000   -0.00052627
     atom    2 type  1   force =     0.00000000    0.00000000    0.00052627
     atom    3 type  2   force =     0.00000000    0.00000000    0.00017862
     atom    4 type  2   force =     0.00000000    0.00000000   -0.00017862

     Total force =     0.000786     Total SCF correction =     0.000003


     Computing stress (Cartesian axis) and pressure

          total   stress  (Ry/bohr**3)                   (kbar)     P=        0.23
   0.00000512   0.00000000   0.00000000            0.75        0.00        0.00
   0.00000000   0.00000166   0.00000000            0.00        0.24        0.00
   0.00000000   0.00000000  -0.00000210            0.00        0.00       -0.31

     Energy error            =      4.1E-06 Ry
     Gradient error          =      5.3E-04 Ry/Bohr
     Cell gradient error     =      7.5E-01 kbar

     number of scf cycles    =  10
     number of bfgs steps    =   9

     enthalpy           old  =    -737.5690868546 Ry
     enthalpy           new  =    -737.5690909757 Ry

     CASE: enthalpy          _new < enthalpy          _old

     new trust radius        =       0.0015750270 bohr
     new conv_thr            =            1.0E-11 Ry

     new unit-cell volume =    328.76232 a.u.^3 (    48.71755 Ang^3 )
     density =      5.64629 g/cm^3

CELL_PARAMETERS (angstrom)
   2.741586312   0.000000000   0.000000000
   0.000000000   4.242025446   0.000000000
   0.000000000   0.000000000   4.188998842

ATOMIC_POSITIONS (angstrom)
Fe               2.0561899467        3.1815185203        3.8532240565
Fe               0.6853966489        1.0605061734        0.3357747680
Al               0.6853966489        3.1815185203        1.7405419495
Al               2.0561899467        1.0605061734        2.4484568750



     Writing config-only to output data dir ./FeAl.save/ :
     XML data file
     NEW-OLD atomic charge density approx. for the potential
     New effective cutoffs (rho, wfc): 1021.24  102.51

     Check: negative core charge=   -0.000004

     total cpu time spent up to now is     5581.9 secs

     Self-consistent Calculation

     iteration #  1     ecut=    90.00 Ry     beta= 0.70
     Davidson diagonalization with overlap
     ethr =  1.00E-06,  avg # of iterations =  3.7

     Threshold (ethr) on eigenvalues was too large:
     Diagonalizing with lowered threshold

     Davidson diagonalization with overlap
     ethr =  3.86E-09,  avg # of iterations =  7.0

     total cpu time spent up to now is     5703.4 secs

     total energy              =    -737.56909164 Ry
     estimated scf accuracy    <       0.00000124 Ry

     iteration #  2     ecut=    90.00 Ry     beta= 0.70
     Davidson diagonalization with overlap
     ethr =  3.26E-09,  avg # of iterations =  3.2

     total cpu time spent up to now is     5742.3 secs

     total energy              =    -737.56909116 Ry
     estimated scf accuracy    <       0.00000286 Ry

     iteration #  3     ecut=    90.00 Ry     beta= 0.70
     Davidson diagonalization with overlap
     ethr =  3.26E-09,  avg # of iterations =  3.5

     total cpu time spent up to now is     5782.9 secs

     total energy              =    -737.56909161 Ry
     estimated scf accuracy    <       0.00000302 Ry

     iteration #  4     ecut=    90.00 Ry     beta= 0.70
     Davidson diagonalization with overlap
     ethr =  3.26E-09,  avg # of iterations =  2.1

     total cpu time spent up to now is     5818.6 secs

     total energy              =    -737.56909191 Ry
     estimated scf accuracy    <       0.00000002 Ry

     iteration #  5     ecut=    90.00 Ry     beta= 0.70
     Davidson diagonalization with overlap
     ethr =  4.03E-11,  avg # of iterations =  5.7

     total cpu time spent up to now is     5875.5 secs

     total energy              =    -737.56909192 Ry
     estimated scf accuracy    <       0.00000002 Ry

     iteration #  6     ecut=    90.00 Ry     beta= 0.70
     Davidson diagonalization with overlap
     ethr =  4.03E-11,  avg # of iterations =  2.0

     total cpu time spent up to now is     5911.7 secs

     total energy              =    -737.56909193 Ry
     estimated scf accuracy    <          4.7E-10 Ry

     iteration #  7     ecut=    90.00 Ry     beta= 0.70
     Davidson diagonalization with overlap
     ethr =  1.24E-12,  avg # of iterations =  5.1

     total cpu time spent up to now is     5964.1 secs

     total energy              =    -737.56909193 Ry
     estimated scf accuracy    <          4.4E-10 Ry

     iteration #  8     ecut=    90.00 Ry     beta= 0.70
     Davidson diagonalization with overlap
     ethr =  1.15E-12,  avg # of iterations =  2.0

     total cpu time spent up to now is     5997.8 secs

     End of self-consistent calculation

     Number of k-points >= 100: set verbosity='high' to print the bands.

     the Fermi energy is    13.6844 ev

!    total energy              =    -737.56909193 Ry
     total all-electron energy =     -6062.447727 Ry
     estimated scf accuracy    <          1.3E-12 Ry
     smearing contrib. (-TS)   =       0.00010713 Ry
     internal energy E=F+TS    =    -737.56919906 Ry

     The total energy is F=E-TS. E is the sum of the following terms:
     one-electron contribution =    -347.15295003 Ry
     hartree contribution      =     194.08710168 Ry
     xc contribution           =     -75.78404667 Ry
     ewald contribution        =    -287.90053284 Ry
     one-center paw contrib.   =    -220.81877120 Ry

     convergence has been achieved in   8 iterations

     Forces acting on atoms (cartesian axes, Ry/au):

     atom    1 type  1   force =     0.00000000    0.00000000   -0.00011366
     atom    2 type  1   force =     0.00000000    0.00000000    0.00011366
     atom    3 type  2   force =     0.00000000    0.00000000    0.00005200
     atom    4 type  2   force =     0.00000000    0.00000000   -0.00005200

     Total force =     0.000177     Total SCF correction =     0.000001


     Computing stress (Cartesian axis) and pressure

          total   stress  (Ry/bohr**3)                   (kbar)     P=        0.14
   0.00000300   0.00000000   0.00000000            0.44        0.00        0.00
   0.00000000   0.00000040   0.00000000            0.00        0.06        0.00
   0.00000000   0.00000000  -0.00000057            0.00        0.00       -0.08

     Energy error            =      9.5E-07 Ry
     Gradient error          =      1.1E-04 Ry/Bohr
     Cell gradient error     =      4.4E-01 kbar

     bfgs converged in  11 scf cycles and  10 bfgs steps
     (criteria: energy <  1.0E-04 Ry, force <  1.0E-03 Ry/Bohr, cell <  5.0E-01 kbar)

     End of BFGS Geometry Optimization

     Final enthalpy           =    -737.5690919258 Ry

     File ./FeAl.bfgs deleted, as requested
Begin final coordinates
     new unit-cell volume =    328.76232 a.u.^3 (    48.71755 Ang^3 )
     density =      5.64629 g/cm^3

CELL_PARAMETERS (angstrom)
   2.741586312   0.000000000   0.000000000
   0.000000000   4.242025446   0.000000000
   0.000000000   0.000000000   4.188998842

ATOMIC_POSITIONS (angstrom)
Fe               2.0561899467        3.1815185203        3.8532240565
Fe               0.6853966489        1.0605061734        0.3357747680
Al               0.6853966489        3.1815185203        1.7405419495
Al               2.0561899467        1.0605061734        2.4484568750
End final coordinates



     Writing config-only to output data dir ./FeAl.save/ :
     XML data file

     Final scf calculation at the relaxed structure.
     The G-vectors are recalculated for the final unit cell
     Results may differ from those at the preceding step.

     G-vector sticks info
     --------------------
     sticks:   dense  smooth     PW     G-vecs:    dense   smooth      PW
     Sum        2981    1187    355               149971    37909    6099

     Using Slab Decomposition



     bravais-lattice index     =            0
     lattice parameter (alat)  =       4.8780  a.u.
     unit-cell volume          =     328.7623 (a.u.)^3
     number of atoms/cell      =            4
     number of atomic types    =            2
     number of electrons       =        38.00
     number of Kohn-Sham states=           23
     kinetic-energy cutoff     =      90.0000  Ry
     charge density cutoff     =     900.0000  Ry
     scf convergence threshold =      1.0E-11
     mixing beta               =       0.7000
     number of iterations used =            8  plain     mixing
     press convergence thresh. =      5.0E-01
     Exchange-correlation= SLA  PW   PBX  PBC
                           (   1   4   3   4   0   0   0)

     celldm(1)=   4.877954  celldm(2)=   0.000000  celldm(3)=   0.000000
     celldm(4)=   0.000000  celldm(5)=   0.000000  celldm(6)=   0.000000

     crystal axes: (cart. coord. in units of alat)
               a(1) = (   1.062094   0.000000   0.000000 )  
               a(2) = (   0.000000   1.643367   0.000000 )  
               a(3) = (   0.000000   0.000000   1.622824 )  

     reciprocal axes: (cart. coord. in units 2 pi/alat)
               b(1) = (  0.941536  0.000000  0.000000 )  
               b(2) = (  0.000000  0.608507  0.000000 )  
               b(3) = (  0.000000  0.000000  0.616210 )  


     PseudoPot. # 1 for Fe read from file:
     /home/yluo/ASE/05_volume_optimization/CMP_pseudos/Fe.pbe-spn-kjpaw_psl.0.2.1.UPF
     MD5 check sum: 4338034a7fd945be4bb7db5fd3b2d142
     Pseudo is Projector augmented-wave + core cor, Zval = 16.0
     Generated using "atomic" code by A. Dal Corso  v.5.0.2 svn rev. 9415
     Shape of augmentation charge: PSQ
     Using radial grid of 1191 points,  6 beta functions with: 
                l(1) =   0
                l(2) =   0
                l(3) =   1
                l(4) =   1
                l(5) =   2
                l(6) =   2
     Q(r) pseudized with 0 coefficients 


     PseudoPot. # 2 for Al read from file:
     /home/yluo/ASE/05_volume_optimization/CMP_pseudos/Al.pbe-n-kjpaw_psl.0.1.UPF
     MD5 check sum: 9111391c6252b599ac5002cf021b5091
     Pseudo is Projector augmented-wave + core cor, Zval =  3.0
     Generated using "atomic" code by A. Dal Corso  v.5.0.2 svn rev. 9415
     Shape of augmentation charge: PSQ
     Using radial grid of 1135 points,  4 beta functions with: 
                l(1) =   0
                l(2) =   0
                l(3) =   1
                l(4) =   1
     Q(r) pseudized with 0 coefficients 


     atomic species   valence    mass     pseudopotential
     Fe               16.00    55.84500     Fe( 1.00)
     Al                3.00    26.98154     Al( 1.00)

      8 Sym. Ops., with inversion, found ( 6 have fractional translation)



   Cartesian axes

     site n.     atom                  positions (alat units)
         1        Fe     tau(   1) = (   0.7965708   1.2325247   1.4927443  )
         2        Fe     tau(   2) = (   0.2655236   0.4108416   0.1300796  )
         3        Al     tau(   3) = (   0.2655236   1.2325247   0.6742884  )
         4        Al     tau(   4) = (   0.7965708   0.4108416   0.9485356  )

     number of k points=   200  Marzari-Vanderbilt smearing, width (Ry)=  0.0050

     Number of k-points >= 100: set verbosity='high' to print them.

     Dense  grid:   149971 G-vectors     FFT dimensions: (  50,  80,  75)

     Smooth grid:    37909 G-vectors     FFT dimensions: (  32,  50,  48)

     Estimated max dynamical RAM per process >     896.69 MB

     Check: negative core charge=   -0.000002

     Initial potential from superposition of free atoms

     starting charge      37.9945, renormalised to      38.0000
     Starting wfcs are   34 randomized atomic wfcs
     Checking if some PAW data can be deallocated... 

     total cpu time spent up to now is     6047.9 secs

     Self-consistent Calculation

     iteration #  1     ecut=    90.00 Ry     beta= 0.70
     Davidson diagonalization with overlap
     c_bands:  1 eigenvalues not converged
     c_bands:  1 eigenvalues not converged
     c_bands:  1 eigenvalues not converged
     c_bands:  1 eigenvalues not converged
     c_bands:  1 eigenvalues not converged
     c_bands:  1 eigenvalues not converged
     c_bands:  1 eigenvalues not converged
     c_bands:  1 eigenvalues not converged
     c_bands:  1 eigenvalues not converged
     c_bands:  1 eigenvalues not converged
     c_bands:  1 eigenvalues not converged
     c_bands:  1 eigenvalues not converged
     c_bands:  1 eigenvalues not converged
     c_bands:  1 eigenvalues not converged
     c_bands:  1 eigenvalues not converged
     c_bands:  1 eigenvalues not converged
     c_bands:  1 eigenvalues not converged
     c_bands:  1 eigenvalues not converged
     c_bands:  1 eigenvalues not converged
     c_bands:  1 eigenvalues not converged
     c_bands:  1 eigenvalues not converged
     c_bands:  1 eigenvalues not converged
     c_bands:  1 eigenvalues not converged
     c_bands:  1 eigenvalues not converged
     c_bands:  1 eigenvalues not converged
     c_bands:  1 eigenvalues not converged
     c_bands:  1 eigenvalues not converged
     c_bands:  1 eigenvalues not converged
     c_bands:  1 eigenvalues not converged
     c_bands:  1 eigenvalues not converged
     c_bands:  1 eigenvalues not converged
     c_bands:  1 eigenvalues not converged
     c_bands:  1 eigenvalues not converged
     c_bands:  1 eigenvalues not converged
     c_bands:  1 eigenvalues not converged
     c_bands:  1 eigenvalues not converged
     c_bands:  1 eigenvalues not converged
     c_bands:  1 eigenvalues not converged
     c_bands:  1 eigenvalues not converged
     c_bands:  3 eigenvalues not converged
     c_bands:  1 eigenvalues not converged
     c_bands:  1 eigenvalues not converged
     c_bands:  1 eigenvalues not converged
     c_bands:  1 eigenvalues not converged
     c_bands:  2 eigenvalues not converged
     c_bands:  1 eigenvalues not converged
     c_bands:  1 eigenvalues not converged
     c_bands:  1 eigenvalues not converged
     c_bands:  1 eigenvalues not converged
     c_bands:  1 eigenvalues not converged
     c_bands:  1 eigenvalues not converged
     c_bands:  1 eigenvalues not converged
     c_bands:  1 eigenvalues not converged
     c_bands:  1 eigenvalues not converged
     c_bands:  1 eigenvalues not converged
     c_bands:  1 eigenvalues not converged
     c_bands:  1 eigenvalues not converged
     c_bands:  1 eigenvalues not converged
     c_bands:  1 eigenvalues not converged
     c_bands:  1 eigenvalues not converged
     c_bands:  1 eigenvalues not converged
     c_bands:  1 eigenvalues not converged
     c_bands:  1 eigenvalues not converged
     c_bands:  1 eigenvalues not converged
     c_bands:  2 eigenvalues not converged
     c_bands:  1 eigenvalues not converged
     c_bands:  1 eigenvalues not converged
     c_bands:  1 eigenvalues not converged
     c_bands:  1 eigenvalues not converged
     c_bands:  1 eigenvalues not converged
     c_bands:  1 eigenvalues not converged
     c_bands:  1 eigenvalues not converged
     c_bands:  2 eigenvalues not converged
     c_bands:  1 eigenvalues not converged
     c_bands:  1 eigenvalues not converged
     c_bands:  1 eigenvalues not converged
     c_bands:  1 eigenvalues not converged
     c_bands:  1 eigenvalues not converged
     c_bands:  1 eigenvalues not converged
     c_bands:  1 eigenvalues not converged
     c_bands:  2 eigenvalues not converged
     c_bands:  2 eigenvalues not converged
     c_bands:  1 eigenvalues not converged
     c_bands:  1 eigenvalues not converged
     c_bands:  1 eigenvalues not converged
     c_bands:  1 eigenvalues not converged
     c_bands:  1 eigenvalues not converged
     c_bands:  1 eigenvalues not converged
     c_bands:  1 eigenvalues not converged
     c_bands:  1 eigenvalues not converged
     c_bands:  1 eigenvalues not converged
     c_bands:  1 eigenvalues not converged
     ethr =  1.00E-06,  avg # of iterations = 19.1

     total cpu time spent up to now is     6265.0 secs

     total energy              =    -737.49459353 Ry
     estimated scf accuracy    <       0.16336457 Ry

     iteration #  2     ecut=    90.00 Ry     beta= 0.70
     Davidson diagonalization with overlap
     ethr =  4.30E-04,  avg # of iterations =  4.1

     total cpu time spent up to now is     6314.7 secs

     total energy              =    -737.35016880 Ry
     estimated scf accuracy    <       1.65623512 Ry

     iteration #  3     ecut=    90.00 Ry     beta= 0.70
     Davidson diagonalization with overlap
     ethr =  4.30E-04,  avg # of iterations =  4.1

     total cpu time spent up to now is     6363.6 secs

     total energy              =    -737.56097245 Ry
     estimated scf accuracy    <       0.06204491 Ry

     iteration #  4     ecut=    90.00 Ry     beta= 0.70
     Davidson diagonalization with overlap
     ethr =  1.63E-04,  avg # of iterations =  2.0

     total cpu time spent up to now is     6399.2 secs

     total energy              =    -737.56870764 Ry
     estimated scf accuracy    <       0.00056698 Ry

     iteration #  5     ecut=    90.00 Ry     beta= 0.70
     Davidson diagonalization with overlap
     c_bands:  1 eigenvalues not converged
     ethr =  1.49E-06,  avg # of iterations =  6.2

     total cpu time spent up to now is     6466.3 secs

     total energy              =    -737.56930326 Ry
     estimated scf accuracy    <       0.00019300 Ry

     iteration #  6     ecut=    90.00 Ry     beta= 0.70
     Davidson diagonalization with overlap
     ethr =  5.08E-07,  avg # of iterations =  2.3

     total cpu time spent up to now is     6502.0 secs

     total energy              =    -737.56932624 Ry
     estimated scf accuracy    <       0.00000542 Ry

     iteration #  7     ecut=    90.00 Ry     beta= 0.70
     Davidson diagonalization with overlap
     ethr =  1.43E-08,  avg # of iterations =  6.9

     total cpu time spent up to now is     6580.8 secs

     total energy              =    -737.56933518 Ry
     estimated scf accuracy    <       0.00000202 Ry

     iteration #  8     ecut=    90.00 Ry     beta= 0.70
     Davidson diagonalization with overlap
     ethr =  5.31E-09,  avg # of iterations =  2.1

     total cpu time spent up to now is     6618.2 secs

     total energy              =    -737.56933546 Ry
     estimated scf accuracy    <       0.00000003 Ry

     iteration #  9     ecut=    90.00 Ry     beta= 0.70
     Davidson diagonalization with overlap
     ethr =  7.94E-11,  avg # of iterations =  7.9

     total cpu time spent up to now is     6708.4 secs

     total energy              =    -737.56933551 Ry
     estimated scf accuracy    <       0.00000005 Ry

     iteration # 10     ecut=    90.00 Ry     beta= 0.70
     Davidson diagonalization with overlap
     ethr =  7.94E-11,  avg # of iterations =  2.2

     total cpu time spent up to now is     6748.4 secs

     total energy              =    -737.56933552 Ry
     estimated scf accuracy    <          5.9E-10 Ry

     iteration # 11     ecut=    90.00 Ry     beta= 0.70
     Davidson diagonalization with overlap
     ethr =  1.55E-12,  avg # of iterations =  6.7

     total cpu time spent up to now is     6823.9 secs

     total energy              =    -737.56933552 Ry
     estimated scf accuracy    <          3.5E-10 Ry

     iteration # 12     ecut=    90.00 Ry     beta= 0.70
     Davidson diagonalization with overlap
     ethr =  9.27E-13,  avg # of iterations =  2.1

     total cpu time spent up to now is     6862.0 secs

     total energy              =    -737.56933552 Ry
     estimated scf accuracy    <          5.4E-11 Ry

     iteration # 13     ecut=    90.00 Ry     beta= 0.70
     Davidson diagonalization with overlap
     ethr =  1.42E-13,  avg # of iterations =  3.5

     total cpu time spent up to now is     6903.7 secs

     End of self-consistent calculation

     Number of k-points >= 100: set verbosity='high' to print the bands.

     the Fermi energy is    13.6844 ev

!    total energy              =    -737.56933552 Ry
     total all-electron energy =     -6062.447970 Ry
     estimated scf accuracy    <          1.4E-12 Ry
     smearing contrib. (-TS)   =       0.00010745 Ry
     internal energy E=F+TS    =    -737.56944297 Ry

     The total energy is F=E-TS. E is the sum of the following terms:
     one-electron contribution =    -347.15357899 Ry
     hartree contribution      =     194.08747848 Ry
     xc contribution           =     -75.78398782 Ry
     ewald contribution        =    -287.90053284 Ry
     one-center paw contrib.   =    -220.81882180 Ry

     convergence has been achieved in  13 iterations

     Forces acting on atoms (cartesian axes, Ry/au):

     atom    1 type  1   force =     0.00000000    0.00000000   -0.00010780
     atom    2 type  1   force =     0.00000000    0.00000000    0.00010780
     atom    3 type  2   force =     0.00000000    0.00000000    0.00005560
     atom    4 type  2   force =     0.00000000    0.00000000   -0.00005560

     Total force =     0.000172     Total SCF correction =     0.000003


     Computing stress (Cartesian axis) and pressure

          total   stress  (Ry/bohr**3)                   (kbar)     P=        1.07
   0.00002381   0.00000000   0.00000000            3.50        0.00        0.00
   0.00000000   0.00000290   0.00000000            0.00        0.43        0.00
   0.00000000   0.00000000  -0.00000489            0.00        0.00       -0.72


     Writing all to output data dir ./FeAl.save/ :
     XML data file, charge density, pseudopotentials, collected wavefunctions

     init_run     :     35.82s CPU     37.09s WALL (       2 calls)
     electrons    :   6405.26s CPU   6476.51s WALL (      12 calls)
     update_pot   :      3.92s CPU      4.06s WALL (      10 calls)
     forces       :     84.62s CPU     89.05s WALL (      12 calls)
     stress       :    295.89s CPU    304.90s WALL (      12 calls)

     Called by init_run:
     wfcinit      :     32.28s CPU     32.82s WALL (       2 calls)
     potinit      :      1.15s CPU      1.23s WALL (       2 calls)
     hinit0       :      1.49s CPU      1.54s WALL (       2 calls)

     Called by electrons:
     c_bands      :   5860.64s CPU   5872.35s WALL (     115 calls)
     sum_band     :    458.19s CPU    497.24s WALL (     115 calls)
     v_of_rho     :      9.98s CPU     10.28s WALL (     123 calls)
     newd         :     48.23s CPU     71.87s WALL (     123 calls)
     PAW_pot      :     37.93s CPU     37.74s WALL (     133 calls)
     mix_rho      :      0.90s CPU      0.91s WALL (     115 calls)

     Called by c_bands:
     init_us_2    :     65.90s CPU     66.41s WALL (   53200 calls)
     cegterg      :   5730.00s CPU   5741.32s WALL (   23000 calls)

     Called by *egterg:
     cdiaghg      :     72.49s CPU     72.89s WALL (  128514 calls)
     h_psi        :   2709.53s CPU   2716.22s WALL (  131714 calls)
     s_psi        :    590.75s CPU    592.01s WALL (  131714 calls)
     g_psi        :     18.08s CPU     18.19s WALL (  108314 calls)

     Called by h_psi:
     h_psi:calbec :    602.97s CPU    603.68s WALL (  131714 calls)
     vloc_psi     :   1495.13s CPU   1498.45s WALL (  131714 calls)
                                        0.00s GPU  (  131714 calls)
     add_vuspsi   :    596.16s CPU    598.64s WALL (  131714 calls)

     General routines
     calbec       :   1060.96s CPU   1063.06s WALL (  197514 calls)
     fft          :      4.79s CPU      4.83s WALL (    1889 calls)
     ffts         :      0.49s CPU      0.49s WALL (     238 calls)
     fftw         :   1454.27s CPU   1458.87s WALL ( 4303970 calls)
     interpolate  :      0.79s CPU      0.80s WALL (     123 calls)

     Parallel routines

     PWSCF        :      1h54m CPU      1h55m WALL


   This run was terminated on:  11:16:48  23Jul2026            

=------------------------------------------------------------------------------=
   JOB DONE.
=------------------------------------------------------------------------------=
