
     Program PWSCF v.7.5 starts on 10Jul2026 at  5:17:24 

     This program is part of the open-source Quantum ESPRESSO suite
     for quantum simulation of materials; please cite
         "P. Giannozzi et al., J. Phys.:Condens. Matter 21 395502 (2009);
         "P. Giannozzi et al., J. Phys.:Condens. Matter 29 465901 (2017);
         "P. Giannozzi et al., J. Chem. Phys. 152 154105 (2020);
          URL http://www.quantum-espresso.org", 
     in publications or presentations arising from this work. More details at
     http://www.quantum-espresso.org/quote

     Parallel version (MPI), running on     1 processors

     MPI processes distributed on     1 nodes
     10015 MiB available memory on the printing compute node when the environment starts

     Reading input from espresso.pwi
Warning: card &CELL ignored
Warning: card &FCP ignored
Warning: card &RISM ignored

     Current dimensions of program PWSCF are:
     Max number of different atomic species (ntypx) = 10
     Max number of k-points (npk) =  40000
     Max angular momentum in pseudopotentials (lmaxx) =  4
     file Fe.pbe-spn-kjpaw_psl.0.2.1.UPF: wavefunction(s)  3D renormalized
     file Al.pbe-n-kjpaw_psl.0.1.UPF: wavefunction(s)  3S renormalized
     Message from routine setup:
     using ibrav=0 with symmetry is DISCOURAGED, use correct ibrav instead

     Subspace diagonalization in iterative solution of the eigenvalue problem:
     a serial algorithm will be used


     G-vector sticks info
     --------------------
     sticks:   dense  smooth     PW     G-vecs:    dense   smooth      PW
     Sum        2197     871    261               103351    26111    4357

     Using Slab Decomposition



     bravais-lattice index     =            0
     lattice parameter (alat)  =       4.8398  a.u.
     unit-cell volume          =     330.2631 (a.u.)^3
     number of atoms/cell      =            4
     number of atomic types    =            2
     number of electrons       =        38.00
     number of Kohn-Sham states=           23
     kinetic-energy cutoff     =      70.0000  Ry
     charge density cutoff     =     700.0000  Ry
     scf convergence threshold =      1.0E-08
     mixing beta               =       0.7000
     number of iterations used =            8  plain     mixing
     Exchange-correlation= SLA  PW   PBX  PBC
                           (   1   4   3   4   0   0   0)

     celldm(1)=   4.839796  celldm(2)=   0.000000  celldm(3)=   0.000000
     celldm(4)=   0.000000  celldm(5)=   0.000000  celldm(6)=   0.000000

     crystal axes: (cart. coord. in units of alat)
               a(1) = (   1.000000   0.000000   0.000000 )  
               a(2) = (   0.000000   1.681970   0.000000 )  
               a(3) = (   0.000000   0.000000   1.732050 )  

     reciprocal axes: (cart. coord. in units 2 pi/alat)
               b(1) = (  1.000000  0.000000  0.000000 )  
               b(2) = (  0.000000  0.594541  0.000000 )  
               b(3) = (  0.000000  0.000000  0.577351 )  


     PseudoPot. # 1 for Fe read from file:
     /home/yluo/ASE/volume_optimization/CMP_pseudos/Fe.pbe-spn-kjpaw_psl.0.2.1.UPF
     MD5 check sum: 4338034a7fd945be4bb7db5fd3b2d142
     Pseudo is Projector augmented-wave + core cor, Zval = 16.0
     Generated using "atomic" code by A. Dal Corso  v.5.0.2 svn rev. 9415
     Shape of augmentation charge: PSQ
     Using radial grid of 1191 points,  6 beta functions with: 
                l(1) =   0
                l(2) =   0
                l(3) =   1
                l(4) =   1
                l(5) =   2
                l(6) =   2
     Q(r) pseudized with 0 coefficients 


     PseudoPot. # 2 for Al read from file:
     /home/yluo/ASE/volume_optimization/CMP_pseudos/Al.pbe-n-kjpaw_psl.0.1.UPF
     MD5 check sum: 9111391c6252b599ac5002cf021b5091
     Pseudo is Projector augmented-wave + core cor, Zval =  3.0
     Generated using "atomic" code by A. Dal Corso  v.5.0.2 svn rev. 9415
     Shape of augmentation charge: PSQ
     Using radial grid of 1135 points,  4 beta functions with: 
                l(1) =   0
                l(2) =   0
                l(3) =   1
                l(4) =   1
     Q(r) pseudized with 0 coefficients 


     atomic species   valence    mass     pseudopotential
     Fe               16.00    55.84500     Fe( 1.00)
     Al                3.00    26.98154     Al( 1.00)

      8 Sym. Ops., with inversion, found ( 6 have fractional translation)



   Cartesian axes

     site n.     atom                  positions (alat units)
         1        Fe     tau(   1) = (   0.7500000   1.2614779   1.5877123  )
         2        Fe     tau(   2) = (   0.2500000   0.4204926   0.1443375  )
         3        Al     tau(   3) = (   0.2500000   1.2614779   0.7216874  )
         4        Al     tau(   4) = (   0.7500000   0.4204926   1.0103624  )

     number of k points=    36  Marzari-Vanderbilt smearing, width (Ry)=  0.0050
                       cart. coord. in units 2pi/alat
        k(    1) = (   0.0000000   0.0000000   0.0000000), wk =   0.0208333
        k(    2) = (   0.0000000   0.0000000   0.1443377), wk =   0.0416667
        k(    3) = (   0.0000000   0.0000000  -0.2886753), wk =   0.0208333
        k(    4) = (   0.0000000   0.1486352   0.0000000), wk =   0.0416667
        k(    5) = (   0.0000000   0.1486352   0.1443377), wk =   0.0833333
        k(    6) = (   0.0000000   0.1486352  -0.2886753), wk =   0.0416667
        k(    7) = (   0.0000000  -0.2972704   0.0000000), wk =   0.0208333
        k(    8) = (   0.0000000  -0.2972704   0.1443377), wk =   0.0416667
        k(    9) = (   0.0000000  -0.2972704  -0.2886753), wk =   0.0208333
        k(   10) = (   0.1666667   0.0000000   0.0000000), wk =   0.0416667
        k(   11) = (   0.1666667   0.0000000   0.1443377), wk =   0.0833333
        k(   12) = (   0.1666667   0.0000000  -0.2886753), wk =   0.0416667
        k(   13) = (   0.1666667   0.1486352   0.0000000), wk =   0.0833333
        k(   14) = (   0.1666667   0.1486352   0.1443377), wk =   0.1666667
        k(   15) = (   0.1666667   0.1486352  -0.2886753), wk =   0.0833333
        k(   16) = (   0.1666667  -0.2972704   0.0000000), wk =   0.0416667
        k(   17) = (   0.1666667  -0.2972704   0.1443377), wk =   0.0833333
        k(   18) = (   0.1666667  -0.2972704  -0.2886753), wk =   0.0416667
        k(   19) = (   0.3333333   0.0000000   0.0000000), wk =   0.0416667
        k(   20) = (   0.3333333   0.0000000   0.1443377), wk =   0.0833333
        k(   21) = (   0.3333333   0.0000000  -0.2886753), wk =   0.0416667
        k(   22) = (   0.3333333   0.1486352   0.0000000), wk =   0.0833333
        k(   23) = (   0.3333333   0.1486352   0.1443377), wk =   0.1666667
        k(   24) = (   0.3333333   0.1486352  -0.2886753), wk =   0.0833333
        k(   25) = (   0.3333333  -0.2972704   0.0000000), wk =   0.0416667
        k(   26) = (   0.3333333  -0.2972704   0.1443377), wk =   0.0833333
        k(   27) = (   0.3333333  -0.2972704  -0.2886753), wk =   0.0416667
        k(   28) = (  -0.5000000   0.0000000   0.0000000), wk =   0.0208333
        k(   29) = (  -0.5000000   0.0000000   0.1443377), wk =   0.0416667
        k(   30) = (  -0.5000000   0.0000000  -0.2886753), wk =   0.0208333
        k(   31) = (  -0.5000000   0.1486352   0.0000000), wk =   0.0416667
        k(   32) = (  -0.5000000   0.1486352   0.1443377), wk =   0.0833333
        k(   33) = (  -0.5000000   0.1486352  -0.2886753), wk =   0.0416667
        k(   34) = (  -0.5000000  -0.2972704   0.0000000), wk =   0.0208333
        k(   35) = (  -0.5000000  -0.2972704   0.1443377), wk =   0.0416667
        k(   36) = (  -0.5000000  -0.2972704  -0.2886753), wk =   0.0208333

     Dense  grid:   103351 G-vectors     FFT dimensions: (  48,  72,  72)

     Smooth grid:    26111 G-vectors     FFT dimensions: (  30,  48,  45)

     Estimated max dynamical RAM per process >     428.85 MB

     Check: negative core charge=   -0.000013

     Initial potential from superposition of free atoms

     starting charge      37.9945, renormalised to      38.0000
     Starting wfcs are   34 randomized atomic wfcs
     Checking if some PAW data can be deallocated... 

     total cpu time spent up to now is        4.2 secs

     Self-consistent Calculation

     iteration #  1     ecut=    70.00 Ry     beta= 0.70
     Davidson diagonalization with overlap
     ethr =  1.00E-02,  avg # of iterations =  2.6

     Threshold (ethr) on eigenvalues was too large:
     Diagonalizing with lowered threshold

     Davidson diagonalization with overlap
     ethr =  4.99E-04,  avg # of iterations =  4.2

     total cpu time spent up to now is       15.1 secs

     total energy              =    -737.44695379 Ry
     estimated scf accuracy    <       0.17479956 Ry

     iteration #  2     ecut=    70.00 Ry     beta= 0.70
     Davidson diagonalization with overlap
     ethr =  4.60E-04,  avg # of iterations =  4.6

     total cpu time spent up to now is       22.1 secs

     total energy              =    -737.26520293 Ry
     estimated scf accuracy    <       2.42968280 Ry

     iteration #  3     ecut=    70.00 Ry     beta= 0.70
     Davidson diagonalization with overlap
     ethr =  4.60E-04,  avg # of iterations =  4.4

     total cpu time spent up to now is       29.0 secs

     total energy              =    -737.53558727 Ry
     estimated scf accuracy    <       0.04192551 Ry

     iteration #  4     ecut=    70.00 Ry     beta= 0.70
     Davidson diagonalization with overlap
     ethr =  1.10E-04,  avg # of iterations =  2.0

     total cpu time spent up to now is       35.3 secs

     total energy              =    -737.54237962 Ry
     estimated scf accuracy    <       0.00060355 Ry

     iteration #  5     ecut=    70.00 Ry     beta= 0.70
     Davidson diagonalization with overlap
     ethr =  1.59E-06,  avg # of iterations =  7.1

     total cpu time spent up to now is       45.0 secs

     total energy              =    -737.54306810 Ry
     estimated scf accuracy    <       0.00006267 Ry

     iteration #  6     ecut=    70.00 Ry     beta= 0.70
     Davidson diagonalization with overlap
     ethr =  1.65E-07,  avg # of iterations =  4.9

     total cpu time spent up to now is       51.8 secs

     total energy              =    -737.54308981 Ry
     estimated scf accuracy    <       0.00000598 Ry

     iteration #  7     ecut=    70.00 Ry     beta= 0.70
     Davidson diagonalization with overlap
     ethr =  1.57E-08,  avg # of iterations =  4.4

     total cpu time spent up to now is       59.0 secs

     total energy              =    -737.54309275 Ry
     estimated scf accuracy    <       0.00000095 Ry

     iteration #  8     ecut=    70.00 Ry     beta= 0.70
     Davidson diagonalization with overlap
     ethr =  2.49E-09,  avg # of iterations =  3.8

     total cpu time spent up to now is       65.8 secs

     total energy              =    -737.54309306 Ry
     estimated scf accuracy    <       0.00000005 Ry

     iteration #  9     ecut=    70.00 Ry     beta= 0.70
     Davidson diagonalization with overlap
     ethr =  1.22E-10,  avg # of iterations =  6.2

     total cpu time spent up to now is       75.1 secs

     End of self-consistent calculation

          k = 0.0000 0.0000 0.0000 (  3243 PWs)   bands (ev):

   -72.9875 -72.9552 -39.2288 -39.0311 -39.0269 -38.9791 -38.8932 -38.8895
     2.8014   8.9299   9.9089  10.0394  10.4843  11.5231  11.7996  12.4583
    12.9246  12.9266  13.5947  13.7418  14.4637  14.5368  15.8202

          k = 0.0000 0.0000 0.1443 (  3272 PWs)   bands (ev):

   -72.9875 -72.9552 -39.2289 -39.0313 -39.0273 -38.9794 -38.8938 -38.8899
     3.2110   7.5635   9.5984   9.7431  11.2524  11.8470  12.3810  12.5269
    12.9203  12.9306  13.5651  13.7526  14.2005  14.4597  17.0861

          k = 0.0000 0.0000-0.2887 (  3290 PWs)   bands (ev):

   -72.9875 -72.9552 -39.2287 -39.0317 -39.0274 -38.9796 -38.8946 -38.8901
     3.8657   6.1923   9.3287  10.1647  11.6826  11.8505  12.0702  12.9081
    12.9367  13.4185  13.5389  13.7603  14.1277  14.4557  14.9982

          k = 0.0000 0.1486 0.0000 (  3282 PWs)   bands (ev):

   -72.9828 -72.9600 -39.2023 -39.0621 -39.0238 -38.9874 -38.8904 -38.8852
     3.3024   6.9792  10.1704  10.2613  10.8925  11.4544  12.3278  12.7654
    12.9464  13.0380  13.6255  13.7058  14.3045  14.3536  17.2259

          k = 0.0000 0.1486 0.1443 (  3281 PWs)   bands (ev):

   -72.9828 -72.9600 -39.2022 -39.0619 -39.0238 -38.9874 -38.8906 -38.8856
     3.6980   7.2129   8.1775  10.2826  11.4533  11.5591  12.2632  12.5563
    13.0359  13.2645  13.6235  13.6913  14.2952  14.3105  17.0991

          k = 0.0000 0.1486-0.2887 (  3292 PWs)   bands (ev):

   -72.9828 -72.9600 -39.2024 -39.0619 -39.0240 -38.9873 -38.8910 -38.8859
     4.3162   6.6925   7.7262   9.7905  11.7016  11.7652  12.1535  12.2687
    13.0336  13.6215  13.6776  13.7347  13.7614  14.3160  16.8063

          k = 0.0000-0.2973 0.0000 (  3286 PWs)   bands (ev):

   -72.9714 -72.9714 -39.1355 -39.1355 -39.0057 -39.0057 -38.8847 -38.8847
     4.7565   4.7565  10.3952  10.3952  11.3506  11.3506  12.4002  12.4002
    13.3292  13.3292  13.7431  13.7431  13.9831  13.9831  16.8238

          k = 0.0000-0.2973 0.1443 (  3270 PWs)   bands (ev):

   -72.9714 -72.9714 -39.1353 -39.1353 -39.0055 -39.0055 -38.8849 -38.8849
     5.1101   5.1101   9.2850   9.2850  11.5419  11.5419  12.0999  12.0999
    13.3176  13.3176  13.8727  13.8727  13.9902  13.9902  18.5501

          k = 0.0000-0.2973-0.2887 (  3280 PWs)   bands (ev):

   -72.9714 -72.9714 -39.1353 -39.1353 -39.0056 -39.0056 -38.8853 -38.8853
     5.6296   5.6296   8.2159   8.2159  11.6556  11.6556  11.9223  11.9223
    13.3063  13.3063  13.9503  13.9503  13.9972  13.9972  20.5673

          k = 0.1667 0.0000 0.0000 (  3271 PWs)   bands (ev):

   -72.9802 -72.9522 -39.2106 -39.0769 -39.0361 -39.0327 -38.8874 -38.8837
     3.4334   9.3049  10.3157  10.4114  10.9293  11.5938  11.7291  12.5638
    12.5812  12.8010  13.4199  14.0744  14.6955  14.8939  15.8994

          k = 0.1667 0.0000 0.1443 (  3277 PWs)   bands (ev):

   -72.9802 -72.9522 -39.2106 -39.0767 -39.0362 -39.0327 -38.8879 -38.8838
     3.8245   8.0968   9.9851  10.2599  11.5267  11.7555  12.1787  12.5433
    12.6467  12.9681  13.3877  13.5399  14.6320  14.7680  17.5135

          k = 0.1667 0.0000-0.2887 (  3298 PWs)   bands (ev):

   -72.9802 -72.9522 -39.2105 -39.0768 -39.0364 -39.0329 -38.8884 -38.8842
     4.4324   6.8434   9.7283  10.5983  11.7065  12.0480  12.3435  12.4660
    12.7112  13.2815  13.4888  13.5525  13.5789  15.1632  16.1162

          k = 0.1667 0.1486 0.0000 (  3265 PWs)   bands (ev):

   -72.9761 -72.9563 -39.1918 -39.0807 -39.0653 -39.0228 -38.8851 -38.8815
     3.9250   7.5271  10.4367  10.6237  11.2303  11.4587  12.3955  12.4111
    12.7436  12.8731  13.6949  13.7573  14.8162  14.8187  17.3379

          k = 0.1667 0.1486 0.1443 (  3270 PWs)   bands (ev):

   -72.9760 -72.9563 -39.1919 -39.0806 -39.0654 -39.0228 -38.8854 -38.8818
     4.3026   7.7279   8.7395  10.7315  11.5015  11.6828  12.1924  12.4038
    12.7025  13.2129  13.5279  13.6924  14.1009  15.1563  17.2855

          k = 0.1667 0.1486-0.2887 (  3278 PWs)   bands (ev):

   -72.9760 -72.9563 -39.1920 -39.0806 -39.0653 -39.0229 -38.8857 -38.8820
     4.8776   7.3038   8.2519  10.3359  11.8054  11.8892  11.9680  12.3975
    12.6534  13.2808  13.3258  13.7390  13.8963  14.8535  17.0841

          k = 0.1667-0.2973 0.0000 (  3256 PWs)   bands (ev):

   -72.9662 -72.9662 -39.1420 -39.1420 -39.0404 -39.0404 -38.8811 -38.8811
     5.3526   5.3526  10.7734  10.7734  11.5810  11.5810  11.9733  11.9733
    13.1243  13.1243  13.7028  13.7028  14.8302  14.8302  17.0245

          k = 0.1667-0.2973 0.1443 (  3270 PWs)   bands (ev):

   -72.9662 -72.9662 -39.1423 -39.1423 -39.0403 -39.0403 -38.8814 -38.8814
     5.6883   5.6883   9.7819   9.7819  11.7484  11.7484  11.9687  11.9687
    13.0479  13.0479  13.8088  13.8088  14.1870  14.1870  19.0930

          k = 0.1667-0.2973-0.2887 (  3276 PWs)   bands (ev):

   -72.9662 -72.9662 -39.1423 -39.1423 -39.0404 -39.0404 -38.8816 -38.8816
     6.1693   6.1693   8.8146   8.8146  11.8243  11.8243  11.9710  11.9710
    12.9617  12.9617  13.7266  13.7266  14.1160  14.1160  20.4696

          k = 0.3333 0.0000 0.0000 (  3281 PWs)   bands (ev):

   -72.9638 -72.9476 -39.1643 -39.1641 -39.1388 -39.0636 -38.8762 -38.8738
     5.2639   9.9630  10.7014  10.9414  11.0598  11.4710  11.9200  12.4384
    12.8014  12.8506  14.0016  14.9666  15.2395  15.5173  15.6869

          k = 0.3333 0.0000 0.1443 (  3252 PWs)   bands (ev):

   -72.9638 -72.9476 -39.1640 -39.1639 -39.1384 -39.0634 -38.8760 -38.8737
     5.5970   9.3888  10.7725  10.8118  11.2487  11.5265  11.8171  12.4568
    12.7421  13.1596  13.5334  14.0074  14.6500  15.4127  16.9509

          k = 0.3333 0.0000-0.2887 (  3252 PWs)   bands (ev):

   -72.9638 -72.9476 -39.1640 -39.1638 -39.1384 -39.0634 -38.8761 -38.8737
     6.0721   8.6077  10.6409  10.9727  11.2554  11.5350  12.3808  12.3828
    12.4710  13.2194  13.4367  13.6430  14.0605  15.7189  18.0127

          k = 0.3333 0.1486 0.0000 (  3280 PWs)   bands (ev):

   -72.9614 -72.9500 -39.1970 -39.1636 -39.1132 -39.0569 -38.8756 -38.8743
     5.7201   8.9519  10.5684  10.8912  11.3764  11.7313  11.9414  12.0277
    12.8409  13.0811  13.9788  14.2578  15.4383  15.7993  15.9301

          k = 0.3333 0.1486 0.1443 (  3262 PWs)   bands (ev):

   -72.9614 -72.9500 -39.1967 -39.1634 -39.1132 -39.0569 -38.8754 -38.8741
     6.0430   9.0771  10.0335  10.9142  11.2739  11.6509  12.0115  12.2307
    12.9846  13.0949  13.5580  13.9688  14.1464  15.3030  17.3058

          k = 0.3333 0.1486-0.2887 (  3260 PWs)   bands (ev):

   -72.9614 -72.9500 -39.1967 -39.1634 -39.1132 -39.0569 -38.8755 -38.8741
     6.4977   8.8441   9.7551  11.0904  11.2917  11.4629  12.1905  12.3382
    12.3934  12.9194  13.4956  13.7133  14.0066  15.8636  16.3367

          k = 0.3333-0.2973 0.0000 (  3258 PWs)   bands (ev):

   -72.9557 -72.9557 -39.1949 -39.1949 -39.0703 -39.0703 -38.8745 -38.8745
     7.0359   7.0359  11.0645  11.0645  11.3979  11.3979  12.1156  12.1156
    12.9392  12.9392  13.7592  13.7592  15.8742  15.8742  16.7323

          k = 0.3333-0.2973 0.1443 (  3262 PWs)   bands (ev):

   -72.9557 -72.9557 -39.1949 -39.1949 -39.0704 -39.0704 -38.8746 -38.8746
     7.3236   7.3236  10.5537  10.5537  11.6351  11.6351  12.1744  12.1744
    12.9403  12.9403  13.5927  13.5927  14.5018  14.5018  17.2390

          k = 0.3333-0.2973-0.2887 (  3288 PWs)   bands (ev):

   -72.9557 -72.9557 -39.1951 -39.1951 -39.0707 -39.0707 -38.8749 -38.8749
     7.7036   7.7036  10.1297  10.1297  11.6442  11.6442  12.2839  12.2839
    12.4696  12.4696  13.5952  13.5952  14.3128  14.3128  17.2439

          k =-0.5000 0.0000 0.0000 (  3252 PWs)   bands (ev):

   -72.9505 -72.9505 -39.1988 -39.1988 -39.1091 -39.1091 -38.8696 -38.8696
     8.0518   8.0518  10.4776  10.4776  11.2185  11.2185  12.7072  12.7072
    12.9342  12.9342  14.7744  14.7744  16.7666  16.7671  16.8597

          k =-0.5000 0.0000 0.1443 (  3244 PWs)   bands (ev):

   -72.9505 -72.9505 -39.1988 -39.1988 -39.1088 -39.1088 -38.8697 -38.8697
     8.2753   8.2753  10.5339  10.5339  11.1735  11.1735  12.6637  12.6637
    12.9700  12.9700  14.0196  14.0196  15.7135  15.7135  17.0068

          k =-0.5000 0.0000-0.2887 (  3204 PWs)   bands (ev):

   -72.9505 -72.9505 -39.1987 -39.1987 -39.1083 -39.1083 -38.8693 -38.8693
     8.5232   8.5232  10.7761  10.7761  11.1307  11.1307  12.1462  12.1462
    13.0034  13.0034  13.4263  13.4263  15.6919  15.6919  17.1724

          k =-0.5000 0.1486 0.0000 (  3240 PWs)   bands (ev):

   -72.9505 -72.9505 -39.2194 -39.2194 -39.0874 -39.0874 -38.8703 -38.8703
     8.3603   8.3603  10.6478  10.6478  11.1939  11.1939  12.1424  12.1424
    12.6956  12.6956  14.6775  14.6775  15.3598  15.3598  17.4142

          k =-0.5000 0.1486 0.1443 (  3264 PWs)   bands (ev):

   -72.9505 -72.9505 -39.2196 -39.2196 -39.0875 -39.0875 -38.8706 -38.8706
     8.6181   8.6181  10.3412  10.3412  11.5755  11.5755  12.0664  12.0664
    13.0032  13.0032  13.8377  13.8377  14.9722  14.9722  17.0151

          k =-0.5000 0.1486-0.2887 (  3256 PWs)   bands (ev):

   -72.9505 -72.9505 -39.2196 -39.2196 -39.0875 -39.0875 -38.8704 -38.8704
     8.8913   8.8913  10.3689  10.3689  11.7003  11.7003  11.9308  11.9308
    12.7269  12.7269  13.4541  13.4541  15.3243  15.3243  16.2516

          k =-0.5000-0.2973 0.0000 (  3268 PWs)   bands (ev):

   -72.9505 -72.9505 -39.2354 -39.2354 -39.0710 -39.0710 -38.8714 -38.8714
     8.8204   8.8204  10.7385  10.7385  10.9843  10.9843  11.5360  11.5360
    12.8820  12.8820  14.0256  14.0256  15.1397  15.1397  18.0680

          k =-0.5000-0.2973 0.1443 (  3260 PWs)   bands (ev):

   -72.9505 -72.9505 -39.2352 -39.2352 -39.0711 -39.0711 -38.8713 -38.8713
     9.2405   9.2405   9.9391   9.9391  11.4200  11.4200  12.1517  12.1517
    12.9789  12.9789  13.4264  13.4264  14.6214  14.6214  17.4887

          k =-0.5000-0.2973-0.2887 (  3288 PWs)   bands (ev):

   -72.9505 -72.9505 -39.2352 -39.2352 -39.0713 -39.0713 -38.8718 -38.8718
     9.6226   9.6226  10.0173  10.0173  10.9259  10.9259  12.5806  12.5806
    12.6772  12.6772  13.6980  13.6980  14.4853  14.4853  15.8880

     the Fermi energy is    13.6960 ev

!    total energy              =    -737.54309311 Ry
     total all-electron energy =     -6062.421728 Ry
     estimated scf accuracy    <          8.7E-10 Ry
     smearing contrib. (-TS)   =      -0.00015988 Ry
     internal energy E=F+TS    =    -737.54293323 Ry

     The total energy is F=E-TS. E is the sum of the following terms:
     one-electron contribution =    -358.75009038 Ry
     hartree contribution      =     199.76449946 Ry
     xc contribution           =     -75.74502231 Ry
     ewald contribution        =    -281.99297535 Ry
     one-center paw contrib.   =    -220.81934466 Ry

     convergence has been achieved in   9 iterations

     Forces acting on atoms (cartesian axes, Ry/au):

     atom    1 type  1   force =     0.00000000    0.00000000   -0.00518629
     atom    2 type  1   force =     0.00000000    0.00000000    0.00518629
     atom    3 type  2   force =     0.00000000    0.00000000   -0.02068384
     atom    4 type  2   force =     0.00000000    0.00000000    0.02068384

     Total force =     0.030157     Total SCF correction =     0.000006


     Computing stress (Cartesian axis) and pressure

          total   stress  (Ry/bohr**3)                   (kbar)     P=      -13.42
   0.00083576   0.00000000   0.00000000          122.94        0.00        0.00
   0.00000000  -0.00027663   0.00000000            0.00      -40.69        0.00
   0.00000000   0.00000000  -0.00083276            0.00        0.00     -122.50


     Writing all to output data dir ./FeAl.save/ :
     XML data file, charge density, pseudopotentials, collected wavefunctions

     init_run     :      3.99s CPU      4.08s WALL (       1 calls)
     electrons    :     68.24s CPU     70.90s WALL (       1 calls)
     forces       :      1.29s CPU      1.38s WALL (       1 calls)
     stress       :      4.87s CPU      5.11s WALL (       1 calls)

     Called by init_run:
     wfcinit      :      2.33s CPU      2.28s WALL (       1 calls)
     potinit      :      0.56s CPU      0.59s WALL (       1 calls)
     hinit0       :      0.77s CPU      0.76s WALL (       1 calls)

     Called by electrons:
     c_bands      :     55.08s CPU     54.58s WALL (      10 calls)
     sum_band     :      7.52s CPU      9.72s WALL (      10 calls)
     v_of_rho     :      0.64s CPU      0.64s WALL (      10 calls)
     newd         :      2.68s CPU      3.83s WALL (      10 calls)
     PAW_pot      :      2.87s CPU      2.82s WALL (      10 calls)
     mix_rho      :      0.05s CPU      0.04s WALL (      10 calls)

     Called by c_bands:
     init_us_2    :      0.67s CPU      0.66s WALL (     828 calls)
     cegterg      :     53.67s CPU     53.20s WALL (     360 calls)

     Called by *egterg:
     cdiaghg      :      1.02s CPU      0.99s WALL (    1917 calls)
     h_psi        :     27.64s CPU     27.89s WALL (    1989 calls)
     s_psi        :      5.86s CPU      5.69s WALL (    1989 calls)
     g_psi        :      0.16s CPU      0.15s WALL (    1593 calls)

     Called by h_psi:
     h_psi:calbec :      5.91s CPU      5.75s WALL (    1989 calls)
     vloc_psi     :     15.75s CPU     16.34s WALL (    1989 calls)
                                        0.00s GPU  (    1989 calls)
     add_vuspsi   :      5.81s CPU      5.65s WALL (    1989 calls)

     General routines
     calbec       :     10.42s CPU     10.13s WALL (    2961 calls)
     fft          :      0.62s CPU      0.61s WALL (     154 calls)
     ffts         :      0.17s CPU      0.17s WALL (      20 calls)
     fftw         :     15.44s CPU     16.04s WALL (   62272 calls)
     interpolate  :      0.19s CPU      0.18s WALL (      10 calls)

     Parallel routines

     PWSCF        :   1m18.49s CPU   1m21.63s WALL


   This run was terminated on:   5:18:45  10Jul2026            

=------------------------------------------------------------------------------=
   JOB DONE.
=------------------------------------------------------------------------------=
