
     Program PWSCF v.7.5 starts on 23Jul2026 at  9: 4:26 

     This program is part of the open-source Quantum ESPRESSO suite
     for quantum simulation of materials; please cite
         "P. Giannozzi et al., J. Phys.:Condens. Matter 21 395502 (2009);
         "P. Giannozzi et al., J. Phys.:Condens. Matter 29 465901 (2017);
         "P. Giannozzi et al., J. Chem. Phys. 152 154105 (2020);
          URL http://www.quantum-espresso.org", 
     in publications or presentations arising from this work. More details at
     http://www.quantum-espresso.org/quote

     Parallel version (MPI), running on     1 processors

     MPI processes distributed on     1 nodes
     4968 MiB available memory on the printing compute node when the environment starts

     Reading input from espresso.pwi
Warning: card &CELL ignored
Warning: card &FCP ignored
Warning: card &RISM ignored

     Current dimensions of program PWSCF are:
     Max number of different atomic species (ntypx) = 10
     Max number of k-points (npk) =  40000
     Max angular momentum in pseudopotentials (lmaxx) =  4
     file Fe.pbe-spn-kjpaw_psl.0.2.1.UPF: wavefunction(s)  3D renormalized
     file Al.pbe-n-kjpaw_psl.0.1.UPF: wavefunction(s)  3S renormalized
     Message from routine setup:
     using ibrav=0 with symmetry is DISCOURAGED, use correct ibrav instead

     Subspace diagonalization in iterative solution of the eigenvalue problem:
     a serial algorithm will be used


     G-vector sticks info
     --------------------
     sticks:   dense  smooth     PW     G-vecs:    dense   smooth      PW
     Sum        2183     863    265               103289    26047    4369

     Using Slab Decomposition



     bravais-lattice index     =            0
     lattice parameter (alat)  =       4.8780  a.u.
     unit-cell volume          =     330.2631 (a.u.)^3
     number of atoms/cell      =            4
     number of atomic types    =            2
     number of electrons       =        38.00
     number of Kohn-Sham states=           23
     kinetic-energy cutoff     =      70.0000  Ry
     charge density cutoff     =     700.0000  Ry
     scf convergence threshold =      1.0E-09
     mixing beta               =       0.7000
     number of iterations used =            8  plain     mixing
     energy convergence thresh.=      1.0E-04
     force convergence thresh. =      1.0E-03
     Exchange-correlation= SLA  PW   PBX  PBC
                           (   1   4   3   4   0   0   0)
     nstep                     =           50


     celldm(1)=   4.877954  celldm(2)=   0.000000  celldm(3)=   0.000000
     celldm(4)=   0.000000  celldm(5)=   0.000000  celldm(6)=   0.000000

     crystal axes: (cart. coord. in units of alat)
               a(1) = (   1.000000   0.000000   0.000000 )  
               a(2) = (   0.000000   1.642807   0.000000 )  
               a(3) = (   0.000000   0.000000   1.732050 )  

     reciprocal axes: (cart. coord. in units 2 pi/alat)
               b(1) = (  1.000000  0.000000  0.000000 )  
               b(2) = (  0.000000  0.608714  0.000000 )  
               b(3) = (  0.000000  0.000000  0.577351 )  


     PseudoPot. # 1 for Fe read from file:
     /home/yluo/ASE/05_volume_optimization/CMP_pseudos/Fe.pbe-spn-kjpaw_psl.0.2.1.UPF
     MD5 check sum: 4338034a7fd945be4bb7db5fd3b2d142
     Pseudo is Projector augmented-wave + core cor, Zval = 16.0
     Generated using "atomic" code by A. Dal Corso  v.5.0.2 svn rev. 9415
     Shape of augmentation charge: PSQ
     Using radial grid of 1191 points,  6 beta functions with: 
                l(1) =   0
                l(2) =   0
                l(3) =   1
                l(4) =   1
                l(5) =   2
                l(6) =   2
     Q(r) pseudized with 0 coefficients 


     PseudoPot. # 2 for Al read from file:
     /home/yluo/ASE/05_volume_optimization/CMP_pseudos/Al.pbe-n-kjpaw_psl.0.1.UPF
     MD5 check sum: 9111391c6252b599ac5002cf021b5091
     Pseudo is Projector augmented-wave + core cor, Zval =  3.0
     Generated using "atomic" code by A. Dal Corso  v.5.0.2 svn rev. 9415
     Shape of augmentation charge: PSQ
     Using radial grid of 1135 points,  4 beta functions with: 
                l(1) =   0
                l(2) =   0
                l(3) =   1
                l(4) =   1
     Q(r) pseudized with 0 coefficients 


     atomic species   valence    mass     pseudopotential
     Fe               16.00    55.84500     Fe( 1.00)
     Al                3.00    26.98154     Al( 1.00)

      8 Sym. Ops., with inversion, found ( 6 have fractional translation)



   Cartesian axes

     site n.     atom                  positions (alat units)
         1        Fe     tau(   1) = (   0.7500000   1.2321049   1.5877123  )
         2        Fe     tau(   2) = (   0.2500000   0.4107016   0.1443375  )
         3        Al     tau(   3) = (   0.2500000   1.2321049   0.7216874  )
         4        Al     tau(   4) = (   0.7500000   0.4107016   1.0103624  )

     number of k points=    36  Marzari-Vanderbilt smearing, width (Ry)=  0.0050
                       cart. coord. in units 2pi/alat
        k(    1) = (   0.0000000   0.0000000   0.0000000), wk =   0.0208333
        k(    2) = (   0.0000000   0.0000000   0.1443377), wk =   0.0416667
        k(    3) = (   0.0000000   0.0000000  -0.2886753), wk =   0.0208333
        k(    4) = (   0.0000000   0.1521786   0.0000000), wk =   0.0416667
        k(    5) = (   0.0000000   0.1521786   0.1443377), wk =   0.0833333
        k(    6) = (   0.0000000   0.1521786  -0.2886753), wk =   0.0416667
        k(    7) = (   0.0000000  -0.3043572   0.0000000), wk =   0.0208333
        k(    8) = (   0.0000000  -0.3043572   0.1443377), wk =   0.0416667
        k(    9) = (   0.0000000  -0.3043572  -0.2886753), wk =   0.0208333
        k(   10) = (   0.1666667   0.0000000   0.0000000), wk =   0.0416667
        k(   11) = (   0.1666667   0.0000000   0.1443377), wk =   0.0833333
        k(   12) = (   0.1666667   0.0000000  -0.2886753), wk =   0.0416667
        k(   13) = (   0.1666667   0.1521786   0.0000000), wk =   0.0833333
        k(   14) = (   0.1666667   0.1521786   0.1443377), wk =   0.1666667
        k(   15) = (   0.1666667   0.1521786  -0.2886753), wk =   0.0833333
        k(   16) = (   0.1666667  -0.3043572   0.0000000), wk =   0.0416667
        k(   17) = (   0.1666667  -0.3043572   0.1443377), wk =   0.0833333
        k(   18) = (   0.1666667  -0.3043572  -0.2886753), wk =   0.0416667
        k(   19) = (   0.3333333   0.0000000   0.0000000), wk =   0.0416667
        k(   20) = (   0.3333333   0.0000000   0.1443377), wk =   0.0833333
        k(   21) = (   0.3333333   0.0000000  -0.2886753), wk =   0.0416667
        k(   22) = (   0.3333333   0.1521786   0.0000000), wk =   0.0833333
        k(   23) = (   0.3333333   0.1521786   0.1443377), wk =   0.1666667
        k(   24) = (   0.3333333   0.1521786  -0.2886753), wk =   0.0833333
        k(   25) = (   0.3333333  -0.3043572   0.0000000), wk =   0.0416667
        k(   26) = (   0.3333333  -0.3043572   0.1443377), wk =   0.0833333
        k(   27) = (   0.3333333  -0.3043572  -0.2886753), wk =   0.0416667
        k(   28) = (  -0.5000000   0.0000000   0.0000000), wk =   0.0208333
        k(   29) = (  -0.5000000   0.0000000   0.1443377), wk =   0.0416667
        k(   30) = (  -0.5000000   0.0000000  -0.2886753), wk =   0.0208333
        k(   31) = (  -0.5000000   0.1521786   0.0000000), wk =   0.0416667
        k(   32) = (  -0.5000000   0.1521786   0.1443377), wk =   0.0833333
        k(   33) = (  -0.5000000   0.1521786  -0.2886753), wk =   0.0416667
        k(   34) = (  -0.5000000  -0.3043572   0.0000000), wk =   0.0208333
        k(   35) = (  -0.5000000  -0.3043572   0.1443377), wk =   0.0416667
        k(   36) = (  -0.5000000  -0.3043572  -0.2886753), wk =   0.0208333

     Dense  grid:   103289 G-vectors     FFT dimensions: (  48,  72,  72)

     Smooth grid:    26047 G-vectors     FFT dimensions: (  30,  48,  45)

     Estimated max dynamical RAM per process >     428.63 MB

     Check: negative core charge=   -0.000013

     Initial potential from superposition of free atoms

     starting charge      37.9945, renormalised to      38.0000
     Starting wfcs are   34 randomized atomic wfcs
     Checking if some PAW data can be deallocated... 

     total cpu time spent up to now is        6.6 secs

     Self-consistent Calculation

     iteration #  1     ecut=    70.00 Ry     beta= 0.70
     Davidson diagonalization with overlap
     ethr =  1.00E-02,  avg # of iterations =  2.9

     Threshold (ethr) on eigenvalues was too large:
     Diagonalizing with lowered threshold

     Davidson diagonalization with overlap
     ethr =  4.80E-04,  avg # of iterations =  4.2

     total cpu time spent up to now is       22.9 secs

     total energy              =    -737.45357398 Ry
     estimated scf accuracy    <       0.16864122 Ry

     iteration #  2     ecut=    70.00 Ry     beta= 0.70
     Davidson diagonalization with overlap
     ethr =  4.44E-04,  avg # of iterations =  4.6

     total cpu time spent up to now is       30.9 secs

     total energy              =    -737.27818761 Ry
     estimated scf accuracy    <       2.27183171 Ry

     iteration #  3     ecut=    70.00 Ry     beta= 0.70
     Davidson diagonalization with overlap
     ethr =  4.44E-04,  avg # of iterations =  4.4

     total cpu time spent up to now is       37.3 secs

     total energy              =    -737.53577412 Ry
     estimated scf accuracy    <       0.05170915 Ry

     iteration #  4     ecut=    70.00 Ry     beta= 0.70
     Davidson diagonalization with overlap
     ethr =  1.36E-04,  avg # of iterations =  2.0

     total cpu time spent up to now is       42.8 secs

     total energy              =    -737.54307959 Ry
     estimated scf accuracy    <       0.00058898 Ry

     iteration #  5     ecut=    70.00 Ry     beta= 0.70
     Davidson diagonalization with overlap
     ethr =  1.55E-06,  avg # of iterations =  6.8

     total cpu time spent up to now is       53.3 secs

     total energy              =    -737.54373469 Ry
     estimated scf accuracy    <       0.00012763 Ry

     iteration #  6     ecut=    70.00 Ry     beta= 0.70
     Davidson diagonalization with overlap
     ethr =  3.36E-07,  avg # of iterations =  3.6

     total cpu time spent up to now is       59.2 secs

     total energy              =    -737.54376469 Ry
     estimated scf accuracy    <       0.00000448 Ry

     iteration #  7     ecut=    70.00 Ry     beta= 0.70
     Davidson diagonalization with overlap
     ethr =  1.18E-08,  avg # of iterations =  6.6

     total cpu time spent up to now is       69.1 secs

     total energy              =    -737.54377051 Ry
     estimated scf accuracy    <       0.00000138 Ry

     iteration #  8     ecut=    70.00 Ry     beta= 0.70
     Davidson diagonalization with overlap
     ethr =  3.62E-09,  avg # of iterations =  2.1

     total cpu time spent up to now is       74.2 secs

     total energy              =    -737.54377079 Ry
     estimated scf accuracy    <       0.00000003 Ry

     iteration #  9     ecut=    70.00 Ry     beta= 0.70
     Davidson diagonalization with overlap
     ethr =  8.68E-11,  avg # of iterations =  8.0

     total cpu time spent up to now is       84.6 secs

     total energy              =    -737.54377086 Ry
     estimated scf accuracy    <       0.00000002 Ry

     iteration # 10     ecut=    70.00 Ry     beta= 0.70
     Davidson diagonalization with overlap
     ethr =  4.91E-11,  avg # of iterations =  2.1

     total cpu time spent up to now is       89.9 secs

     End of self-consistent calculation

          k = 0.0000 0.0000 0.0000 (  3263 PWs)   bands (ev):

   -72.9728 -72.9370 -39.2288 -39.0139 -39.0064 -38.9478 -38.8862 -38.8823
     2.7827   9.0063   9.8585  10.1805  10.4833  11.5440  11.8357  12.5710
    12.8575  12.9626  13.5883  13.7452  14.5092  14.5472  15.8699

          k = 0.0000 0.0000 0.1443 (  3295 PWs)   bands (ev):

   -72.9728 -72.9370 -39.2289 -39.0142 -39.0068 -38.9481 -38.8865 -38.8829
     3.1802   7.5237   9.7061   9.8316  11.2884  11.8726  12.4887  12.5897
    12.8635  12.9571  13.5564  13.7569  14.3232  14.5050  17.0309

          k = 0.0000 0.0000-0.2887 (  3282 PWs)   bands (ev):

   -72.9728 -72.9370 -39.2289 -39.0144 -39.0069 -38.9479 -38.8866 -38.8827
     3.8071   6.1809   9.4265  10.2020  11.8074  11.8667  12.1552  12.8696
    12.9466  13.5281  13.5849  13.7652  14.2699  14.5008  14.9962

          k = 0.0000 0.1522 0.0000 (  3253 PWs)   bands (ev):

   -72.9676 -72.9422 -39.2006 -39.0515 -38.9978 -38.9566 -38.8823 -38.8767
     3.2996   7.0821  10.1482  10.2201  10.9263  11.4492  12.4256  12.8536
    12.9746  12.9750  13.6134  13.7107  14.3429  14.3824  17.4180

          k = 0.0000 0.1522 0.1443 (  3272 PWs)   bands (ev):

   -72.9676 -72.9422 -39.2008 -39.0516 -38.9981 -38.9566 -38.8826 -38.8772
     3.6826   7.2915   8.1605  10.3284  11.4450  11.5790  12.3650  12.6249
    12.9723  13.3052  13.6112  13.6949  14.3498  14.3999  17.2907

          k = 0.0000 0.1522-0.2887 (  3280 PWs)   bands (ev):

   -72.9675 -72.9422 -39.2007 -39.0516 -38.9983 -38.9566 -38.8828 -38.8776
     4.2730   6.7022   7.7870   9.8603  11.7044  11.7749  12.2724  12.3554
    12.9697  13.6089  13.6799  13.7885  13.8217  14.3561  17.0054

          k = 0.0000-0.3044 0.0000 (  3298 PWs)   bands (ev):

   -72.9549 -72.9549 -39.1301 -39.1301 -38.9778 -38.9778 -38.8763 -38.8763
     4.7986   4.7986  10.3866  10.3866  11.3687  11.3687  12.4346  12.4346
    13.2849  13.2849  13.8050  13.8050  14.0079  14.0079  16.7544

          k = 0.0000-0.3044 0.1443 (  3264 PWs)   bands (ev):

   -72.9549 -72.9549 -39.1299 -39.1299 -38.9773 -38.9773 -38.8762 -38.8762
     5.1387   5.1387   9.3016   9.3016  11.5504  11.5504  12.1547  12.1547
    13.2729  13.2729  13.9292  13.9292  14.0153  14.0153  18.4707

          k = 0.0000-0.3044-0.2887 (  3260 PWs)   bands (ev):

   -72.9549 -72.9549 -39.1299 -39.1299 -38.9771 -38.9771 -38.8765 -38.8765
     5.6310   5.6310   8.2692   8.2692  11.6437  11.6437  12.0017  12.0017
    13.2611  13.2611  14.0031  14.0031  14.0224  14.0224  20.6723

          k = 0.1667 0.0000 0.0000 (  3287 PWs)   bands (ev):

   -72.9657 -72.9347 -39.2103 -39.0483 -39.0242 -38.9982 -38.8804 -38.8767
     3.4044   9.3478  10.2607  10.5492  10.9337  11.5871  11.7791  12.5707
    12.6540  12.7788  13.4887  14.0442  14.7589  14.8501  15.9462

          k = 0.1667 0.0000 0.1443 (  3282 PWs)   bands (ev):

   -72.9657 -72.9347 -39.2102 -39.0484 -39.0242 -38.9983 -38.8803 -38.8767
     3.7841   8.0529  10.0773  10.3138  11.5268  11.8054  12.2410  12.6091
    12.6188  12.9646  13.4480  13.5606  14.7085  14.8232  17.4469

          k = 0.1667 0.0000-0.2887 (  3286 PWs)   bands (ev):

   -72.9657 -72.9347 -39.2101 -39.0483 -39.0241 -38.9983 -38.8808 -38.8768
     4.3670   6.8214   9.8083  10.6070  11.7771  12.0564  12.4095  12.5345
    12.6719  13.3106  13.5207  13.5877  13.7309  15.1638  16.2335

          k = 0.1667 0.1522 0.0000 (  3279 PWs)   bands (ev):

   -72.9612 -72.9392 -39.1900 -39.0682 -39.0361 -38.9918 -38.8776 -38.8742
     3.9118   7.6181  10.4022  10.5937  11.2438  11.4479  12.4444  12.4602
    12.7495  12.9289  13.7423  13.7450  14.7839  14.8301  17.4489

          k = 0.1667 0.1522 0.1443 (  3266 PWs)   bands (ev):

   -72.9612 -72.9392 -39.1899 -39.0680 -39.0361 -38.9917 -38.8776 -38.8741
     4.2776   7.7943   8.7175  10.7564  11.4994  11.6857  12.2384  12.4490
    12.7084  13.2348  13.5489  13.7234  14.1370  15.2257  17.4385

          k = 0.1667 0.1522-0.2887 (  3282 PWs)   bands (ev):

   -72.9612 -72.9392 -39.1901 -39.0680 -39.0362 -38.9918 -38.8781 -38.8744
     4.8276   7.3043   8.3012  10.3860  11.8568  11.8991  11.9606  12.4459
    12.6508  13.2983  13.3431  13.7744  13.9642  14.9101  17.2400

          k = 0.1667-0.3044 0.0000 (  3258 PWs)   bands (ev):

   -72.9502 -72.9502 -39.1358 -39.1358 -39.0096 -39.0096 -38.8731 -38.8731
     5.3840   5.3840  10.7553  10.7553  11.5930  11.5930  12.0079  12.0079
    13.1271  13.1271  13.7277  13.7277  14.8386  14.8386  16.9433

          k = 0.1667-0.3044 0.1443 (  3264 PWs)   bands (ev):

   -72.9502 -72.9502 -39.1359 -39.1359 -39.0096 -39.0096 -38.8733 -38.8733
     5.7071   5.7071   9.7891   9.7891  11.7544  11.7544  11.9971  11.9971
    13.0496  13.0496  13.8376  13.8376  14.2123  14.2123  18.9993

          k = 0.1667-0.3044-0.2887 (  3252 PWs)   bands (ev):

   -72.9502 -72.9502 -39.1358 -39.1358 -39.0093 -39.0093 -38.8735 -38.8735
     6.1641   6.1641   8.8538   8.8538  11.8299  11.8299  11.9913  11.9913
    12.9652  12.9652  13.7691  13.7691  14.1409  14.1409  20.4509

          k = 0.3333 0.0000 0.0000 (  3275 PWs)   bands (ev):

   -72.9497 -72.9318 -39.1620 -39.1271 -39.0983 -39.0545 -38.8695 -38.8674
     5.2075   9.9536  10.6710  10.8737  11.1671  11.4472  12.0081  12.4181
    12.8532  12.8800  14.0653  14.8428  15.3108  15.4260  15.5748

          k = 0.3333 0.0000 0.1443 (  3268 PWs)   bands (ev):

   -72.9497 -72.9318 -39.1622 -39.1269 -39.0982 -39.0546 -38.8693 -38.8672
     5.5316   9.3457  10.7383  10.8529  11.1835  11.5611  11.8838  12.4731
    12.7689  13.1744  13.5473  14.0741  14.6238  15.4605  17.0103

          k = 0.3333 0.0000-0.2887 (  3256 PWs)   bands (ev):

   -72.9497 -72.9318 -39.1622 -39.1270 -39.0980 -39.0544 -38.8692 -38.8670
     5.9903   8.5617  10.6636  10.9447  11.2104  11.5811  12.3599  12.3671
    12.5028  13.2940  13.4627  13.7470  14.1211  15.7239  17.9878

          k = 0.3333 0.1522 0.0000 (  3279 PWs)   bands (ev):

   -72.9471 -72.9344 -39.1820 -39.1361 -39.0876 -39.0365 -38.8688 -38.8680
     5.6795   9.0074  10.5581  10.8836  11.3361  11.7097  11.9840  12.0517
    12.8361  13.1174  14.0243  14.2661  15.3383  15.6977  15.8747

          k = 0.3333 0.1522 0.1443 (  3263 PWs)   bands (ev):

   -72.9471 -72.9344 -39.1817 -39.1360 -39.0875 -39.0364 -38.8688 -38.8678
     5.9932   9.1095  10.0196  10.9075  11.2521  11.6396  12.0222  12.2580
    12.9990  13.0876  13.5738  14.0004  14.1565  15.2830  17.3283

          k = 0.3333 0.1522-0.2887 (  3246 PWs)   bands (ev):

   -72.9471 -72.9344 -39.1816 -39.1357 -39.0873 -39.0365 -38.8687 -38.8677
     6.4318   8.8308   9.7684  11.1193  11.2620  11.4520  12.1997  12.3198
    12.3699  12.9750  13.5179  13.7630  14.0571  15.9421  16.2587

          k = 0.3333-0.3044 0.0000 (  3240 PWs)   bands (ev):

   -72.9407 -72.9407 -39.1759 -39.1759 -39.0447 -39.0447 -38.8679 -38.8679
     7.0394   7.0394  11.0763  11.0763  11.4074  11.4074  12.1143  12.1143
    12.9391  12.9391  13.7584  13.7584  15.7842  15.7842  16.6927

          k = 0.3333-0.3044 0.1443 (  3270 PWs)   bands (ev):

   -72.9408 -72.9408 -39.1761 -39.1761 -39.0450 -39.0450 -38.8682 -38.8682
     7.3179   7.3179  10.5578  10.5578  11.6469  11.6469  12.1724  12.1724
    12.9349  12.9349  13.5833  13.5833  14.5143  14.5143  17.1525

          k = 0.3333-0.3044-0.2887 (  3264 PWs)   bands (ev):

   -72.9407 -72.9407 -39.1759 -39.1759 -39.0449 -39.0449 -38.8683 -38.8683
     7.6833   7.6833  10.1383  10.1383  11.6322  11.6322  12.3059  12.3059
    12.4538  12.4538  13.6215  13.6215  14.3445  14.3445  17.1253

          k =-0.5000 0.0000 0.0000 (  3236 PWs)   bands (ev):

   -72.9360 -72.9360 -39.1564 -39.1564 -39.1037 -39.1037 -38.8633 -38.8633
     7.9653   7.9653  10.4616  10.4616  11.2449  11.2449  12.7763  12.7763
    12.9469  12.9469  14.7490  14.7490  16.6275  16.6276  16.8964

          k =-0.5000 0.0000 0.1443 (  3244 PWs)   bands (ev):

   -72.9360 -72.9360 -39.1563 -39.1563 -39.1039 -39.1039 -38.8634 -38.8634
     8.1861   8.1861  10.5094  10.5094  11.1914  11.1914  12.6819  12.6819
    12.9998  12.9998  14.0131  14.0131  15.6936  15.6936  17.0274

          k =-0.5000 0.0000-0.2887 (  3196 PWs)   bands (ev):

   -72.9360 -72.9360 -39.1562 -39.1562 -39.1035 -39.1035 -38.8627 -38.8627
     8.4356   8.4356  10.7095  10.7095  11.1413  11.1413  12.1227  12.1227
    13.0490  13.0490  13.5083  13.5083  15.6647  15.6647  17.1748

          k =-0.5000 0.1522 0.0000 (  3244 PWs)   bands (ev):

   -72.9360 -72.9360 -39.1888 -39.1888 -39.0702 -39.0702 -38.8645 -38.8645
     8.2959   8.2959  10.6498  10.6498  11.2175  11.2175  12.1846  12.1846
    12.6709  12.6709  14.6939  14.6939  15.3168  15.3168  17.3115

          k =-0.5000 0.1522 0.1443 (  3254 PWs)   bands (ev):

   -72.9360 -72.9360 -39.1889 -39.1889 -39.0703 -39.0703 -38.8645 -38.8645
     8.5480   8.5480  10.3470  10.3470  11.5934  11.5934  12.0642  12.0642
    13.0071  13.0071  13.8123  13.8123  14.9860  14.9860  16.9441

          k =-0.5000 0.1522-0.2887 (  3236 PWs)   bands (ev):

   -72.9360 -72.9360 -39.1888 -39.1888 -39.0702 -39.0702 -38.8643 -38.8643
     8.8235   8.8235  10.3493  10.3493  11.6833  11.6833  11.9254  11.9254
    12.7525  12.7525  13.4839  13.4839  15.3200  15.3200  16.1958

          k =-0.5000-0.3044 0.0000 (  3248 PWs)   bands (ev):

   -72.9360 -72.9360 -39.2089 -39.2089 -39.0489 -39.0489 -38.8657 -38.8657
     8.8017   8.8017  10.6960  10.6960  11.0179  11.0179  11.5545  11.5545
    12.8677  12.8677  14.0260  14.0260  15.0821  15.0821  17.9989

          k =-0.5000-0.3044 0.1443 (  3244 PWs)   bands (ev):

   -72.9360 -72.9360 -39.2088 -39.2088 -39.0490 -39.0490 -38.8657 -38.8657
     9.2134   9.2134   9.9362   9.9362  11.4211  11.4211  12.1509  12.1509
    12.9595  12.9595  13.4013  13.4013  14.6270  14.6270  17.4031

          k =-0.5000-0.3044-0.2887 (  3264 PWs)   bands (ev):

   -72.9360 -72.9360 -39.2089 -39.2089 -39.0491 -39.0491 -38.8659 -38.8659
     9.6238   9.6238   9.9732   9.9732  10.8985  10.8985  12.5860  12.5860
    12.6892  12.6892  13.6691  13.6691  14.5096  14.5096  15.8154

     the Fermi energy is    13.7258 ev

!    total energy              =    -737.54377086 Ry
     total all-electron energy =     -6062.422405 Ry
     estimated scf accuracy    <          3.5E-10 Ry
     smearing contrib. (-TS)   =      -0.00031156 Ry
     internal energy E=F+TS    =    -737.54345930 Ry

     The total energy is F=E-TS. E is the sum of the following terms:
     one-electron contribution =    -360.36187958 Ry
     hartree contribution      =     200.58540510 Ry
     xc contribution           =     -75.74264110 Ry
     ewald contribution        =    -281.20524969 Ry
     one-center paw contrib.   =    -220.81909402 Ry

     convergence has been achieved in  10 iterations

     Forces acting on atoms (cartesian axes, Ry/au):

     atom    1 type  1   force =     0.00000000    0.00000000   -0.01016730
     atom    2 type  1   force =     0.00000000    0.00000000    0.01016730
     atom    3 type  2   force =     0.00000000    0.00000000   -0.02206932
     atom    4 type  2   force =     0.00000000    0.00000000    0.02206932

     Total force =     0.034364     Total SCF correction =     0.000031


     Computing stress (Cartesian axis) and pressure

          total   stress  (Ry/bohr**3)                   (kbar)     P=      -15.72
   0.00077291   0.00000000   0.00000000          113.70        0.00        0.00
   0.00000000  -0.00012157   0.00000000            0.00      -17.88        0.00
   0.00000000   0.00000000  -0.00097186            0.00        0.00     -142.97


     BFGS Geometry Optimization
     Energy error            =      1.2E-03 Ry
     Gradient error          =      2.2E-02 Ry/Bohr

     number of scf cycles    =   1
     number of bfgs steps    =   0

     energy             new  =    -737.5437708619 Ry

     new trust radius        =       0.0220693199 bohr
     new conv_thr            =       0.0000000010 Ry


ATOMIC_POSITIONS (angstrom)
Fe               1.9359767605        3.1804352811        4.0929852601
Fe               0.6453255868        1.0601450937        0.3779589888
Al               0.6453255868        3.1804352811        1.8512148574
Al               1.9359767605        1.0601450937        2.6197293915



     Writing config-only to output data dir ./FeAl.save/ :
     XML data file
     NEW-OLD atomic charge density approx. for the potential

     Check: negative core charge=   -0.000013

     total cpu time spent up to now is       98.4 secs

     Self-consistent Calculation

     iteration #  1     ecut=    70.00 Ry     beta= 0.70
     Davidson diagonalization with overlap
     ethr =  1.00E-06,  avg # of iterations =  7.2

     total cpu time spent up to now is      109.8 secs

     total energy              =    -737.54485456 Ry
     estimated scf accuracy    <       0.00007392 Ry

     iteration #  2     ecut=    70.00 Ry     beta= 0.70
     Davidson diagonalization with overlap
     ethr =  1.95E-07,  avg # of iterations =  4.6

     total cpu time spent up to now is      116.8 secs

     total energy              =    -737.54473992 Ry
     estimated scf accuracy    <       0.00169174 Ry

     iteration #  3     ecut=    70.00 Ry     beta= 0.70
     Davidson diagonalization with overlap
     ethr =  1.95E-07,  avg # of iterations =  4.1

     total cpu time spent up to now is      123.5 secs

     total energy              =    -737.54489708 Ry
     estimated scf accuracy    <       0.00000954 Ry

     iteration #  4     ecut=    70.00 Ry     beta= 0.70
     Davidson diagonalization with overlap
     ethr =  2.51E-08,  avg # of iterations =  2.1

     total cpu time spent up to now is      129.0 secs

     total energy              =    -737.54489843 Ry
     estimated scf accuracy    <       0.00000073 Ry

     iteration #  5     ecut=    70.00 Ry     beta= 0.70
     Davidson diagonalization with overlap
     ethr =  1.92E-09,  avg # of iterations =  5.2

     total cpu time spent up to now is      136.6 secs

     total energy              =    -737.54489886 Ry
     estimated scf accuracy    <       0.00000003 Ry

     iteration #  6     ecut=    70.00 Ry     beta= 0.70
     Davidson diagonalization with overlap
     ethr =  8.74E-11,  avg # of iterations =  6.0

     total cpu time spent up to now is      144.3 secs

     total energy              =    -737.54489890 Ry
     estimated scf accuracy    <          4.3E-09 Ry

     iteration #  7     ecut=    70.00 Ry     beta= 0.70
     Davidson diagonalization with overlap
     ethr =  1.12E-11,  avg # of iterations =  3.7

     total cpu time spent up to now is      150.8 secs

     End of self-consistent calculation

          k = 0.0000 0.0000 0.0000 (  3263 PWs)   bands (ev):

   -72.9695 -72.9342 -39.2221 -39.0104 -39.0043 -38.9467 -38.8844 -38.8813
     2.7906   8.9809   9.8565  10.1927  10.4971  11.5542  11.8600  12.5622
    12.8682  12.9409  13.5922  13.7410  14.5025  14.5362  15.8700

          k = 0.0000 0.0000 0.1443 (  3295 PWs)   bands (ev):

   -72.9695 -72.9342 -39.2223 -39.0106 -39.0048 -38.9470 -38.8846 -38.8818
     3.1899   7.5108   9.7188   9.8280  11.2856  11.8968  12.4781  12.5974
    12.8743  12.9355  13.5599  13.7530  14.3267  14.4982  17.0272

          k = 0.0000 0.0000-0.2887 (  3282 PWs)   bands (ev):

   -72.9695 -72.9342 -39.2222 -39.0108 -39.0048 -38.9467 -38.8847 -38.8817
     3.8228   6.1651   9.4395  10.1973  11.8248  11.8494  12.1557  12.8804
    12.9247  13.5316  13.6022  13.7615  14.2574  14.4938  15.0282

          k = 0.0000 0.1522 0.0000 (  3253 PWs)   bands (ev):

   -72.9643 -72.9394 -39.1945 -39.0475 -38.9959 -38.9553 -38.8805 -38.8755
     3.3076   7.0853  10.1456  10.2175  10.9283  11.4566  12.4190  12.8636
    12.9556  12.9814  13.6094  13.7152  14.3402  14.3653  17.4211

          k = 0.0000 0.1522 0.1443 (  3272 PWs)   bands (ev):

   -72.9643 -72.9394 -39.1946 -39.0477 -38.9962 -38.9553 -38.8808 -38.8759
     3.6925   7.2914   8.1611  10.3289  11.4442  11.5818  12.3575  12.6187
    12.9788  13.2960  13.6072  13.6994  14.3472  14.3997  17.3160

          k = 0.0000 0.1522-0.2887 (  3280 PWs)   bands (ev):

   -72.9643 -72.9394 -39.1946 -39.0477 -38.9964 -38.9554 -38.8811 -38.8763
     4.2884   6.6854   7.8038   9.8530  11.6968  11.7894  12.2658  12.3380
    12.9761  13.6049  13.6846  13.7757  13.8375  14.3536  17.0385

          k = 0.0000-0.3044 0.0000 (  3298 PWs)   bands (ev):

   -72.9519 -72.9519 -39.1251 -39.1251 -38.9762 -38.9762 -38.8747 -38.8747
     4.8064   4.8064  10.3845  10.3845  11.3695  11.3695  12.4324  12.4324
    13.2843  13.2843  13.7828  13.7828  14.0110  14.0110  16.7778

          k = 0.0000-0.3044 0.1443 (  3264 PWs)   bands (ev):

   -72.9519 -72.9519 -39.1249 -39.1249 -38.9757 -38.9757 -38.8747 -38.8747
     5.1482   5.1482   9.2956   9.2956  11.5514  11.5514  12.1495  12.1495
    13.2721  13.2721  13.9225  13.9225  14.0187  14.0187  18.4855

          k = 0.0000-0.3044-0.2887 (  3260 PWs)   bands (ev):

   -72.9519 -72.9519 -39.1250 -39.1250 -38.9755 -38.9755 -38.8749 -38.8749
     5.6448   5.6448   8.2581   8.2581  11.6449  11.6449  11.9957  11.9957
    13.2602  13.2602  14.0028  14.0028  14.0261  14.0261  20.6998

          k = 0.1667 0.0000 0.0000 (  3287 PWs)   bands (ev):

   -72.9625 -72.9319 -39.2039 -39.0463 -39.0204 -38.9970 -38.8785 -38.8756
     3.4125   9.3229  10.2542  10.5596  10.9496  11.5943  11.7970  12.5525
    12.6525  12.7897  13.4937  14.0437  14.7616  14.8378  15.9474

          k = 0.1667 0.0000 0.1443 (  3282 PWs)   bands (ev):

   -72.9624 -72.9319 -39.2037 -39.0464 -39.0204 -38.9971 -38.8785 -38.8756
     3.7939   8.0383  10.0881  10.3085  11.5261  11.8213  12.2392  12.6088
    12.6149  12.9671  13.4515  13.5606  14.7106  14.8301  17.4414

          k = 0.1667 0.0000-0.2887 (  3286 PWs)   bands (ev):

   -72.9624 -72.9319 -39.2037 -39.0463 -39.0204 -38.9971 -38.8790 -38.8757
     4.3824   6.8045   9.8192  10.5997  11.7912  12.0446  12.3941  12.5376
    12.6831  13.3150  13.5185  13.5795  13.7469  15.1944  16.2177

          k = 0.1667 0.1522 0.0000 (  3279 PWs)   bands (ev):

   -72.9580 -72.9363 -39.1840 -39.0643 -39.0342 -38.9903 -38.8758 -38.8729
     3.9199   7.6207  10.4016  10.5874  11.2462  11.4546  12.4399  12.4638
    12.7499  12.9233  13.7396  13.7454  14.7683  14.8354  17.4574

          k = 0.1667 0.1522 0.1443 (  3266 PWs)   bands (ev):

   -72.9580 -72.9363 -39.1839 -39.0641 -39.0343 -38.9902 -38.8759 -38.8729
     4.2875   7.7930   8.7186  10.7542  11.4991  11.6859  12.2379  12.4518
    12.7094  13.2266  13.5458  13.7259  14.1390  15.2205  17.4604

          k = 0.1667 0.1522-0.2887 (  3282 PWs)   bands (ev):

   -72.9580 -72.9363 -39.1840 -39.0641 -39.0344 -38.9903 -38.8764 -38.8731
     4.8427   7.2865   8.3181  10.3762  11.8502  11.9088  11.9531  12.4490
    12.6531  13.2910  13.3516  13.7700  13.9722  14.9003  17.2727

          k = 0.1667-0.3044 0.0000 (  3258 PWs)   bands (ev):

   -72.9471 -72.9471 -39.1308 -39.1308 -39.0080 -39.0080 -38.8716 -38.8716
     5.3916   5.3916  10.7567  10.7567  11.5882  11.5882  12.0105  12.0105
    13.1241  13.1241  13.7159  13.7159  14.8321  14.8321  16.9632

          k = 0.1667-0.3044 0.1443 (  3264 PWs)   bands (ev):

   -72.9472 -72.9472 -39.1309 -39.1309 -39.0080 -39.0080 -38.8718 -38.8718
     5.7165   5.7165   9.7830   9.7830  11.7542  11.7542  11.9990  11.9990
    13.0452  13.0452  13.8341  13.8341  14.2123  14.2123  19.0069

          k = 0.1667-0.3044-0.2887 (  3252 PWs)   bands (ev):

   -72.9471 -72.9471 -39.1308 -39.1308 -39.0077 -39.0077 -38.8719 -38.8719
     6.1776   6.1776   8.8421   8.8421  11.8315  11.8315  11.9916  11.9916
    12.9604  12.9604  13.7776  13.7776  14.1341  14.1341  20.4678

          k = 0.3333 0.0000 0.0000 (  3275 PWs)   bands (ev):

   -72.9466 -72.9289 -39.1561 -39.1253 -39.0969 -39.0501 -38.8678 -38.8662
     5.2159   9.9378  10.6568  10.8754  11.1685  11.4492  12.0292  12.4098
    12.8720  12.8878  14.0634  14.8489  15.3328  15.4295  15.5585

          k = 0.3333 0.0000 0.1443 (  3268 PWs)   bands (ev):

   -72.9466 -72.9289 -39.1563 -39.1251 -39.0968 -39.0502 -38.8677 -38.8660
     5.5416   9.3278  10.7337  10.8557  11.1793  11.5562  11.9003  12.4793
    12.7857  13.1731  13.5454  14.0710  14.6329  15.4846  17.0144

          k = 0.3333 0.0000-0.2887 (  3256 PWs)   bands (ev):

   -72.9466 -72.9289 -39.1563 -39.1252 -39.0967 -39.0501 -38.8676 -38.8658
     6.0047   8.5417  10.6665  10.9490  11.1990  11.5730  12.3656  12.3807
    12.5154  13.2930  13.4584  13.7628  14.1222  15.7527  17.9858

          k = 0.3333 0.1522 0.0000 (  3279 PWs)   bands (ev):

   -72.9440 -72.9315 -39.1772 -39.1330 -39.0850 -39.0336 -38.8671 -38.8667
     5.6876   9.0075  10.5576  10.8779  11.3417  11.7032  11.9851  12.0670
    12.8353  13.1220  14.0169  14.2563  15.3501  15.6878  15.8843

          k = 0.3333 0.1522 0.1443 (  3263 PWs)   bands (ev):

   -72.9440 -72.9315 -39.1769 -39.1329 -39.0850 -39.0335 -38.8672 -38.8665
     6.0031   9.1041  10.0226  10.9082  11.2491  11.6345  12.0204  12.2750
    13.0056  13.0847  13.5709  13.9922  14.1595  15.2947  17.3246

          k = 0.3333 0.1522-0.2887 (  3246 PWs)   bands (ev):

   -72.9440 -72.9315 -39.1767 -39.1326 -39.0848 -39.0336 -38.8671 -38.8663
     6.4459   8.8127   9.7835  11.1142  11.2610  11.4393  12.2106  12.3333
    12.3714  12.9734  13.5164  13.7690  14.0522  15.9317  16.2850

          k = 0.3333-0.3044 0.0000 (  3240 PWs)   bands (ev):

   -72.9377 -72.9377 -39.1716 -39.1716 -39.0422 -39.0422 -38.8664 -38.8664
     7.0462   7.0462  11.0830  11.0830  11.4140  11.4140  12.1056  12.1056
    12.9364  12.9364  13.7438  13.7438  15.7892  15.7892  16.6965

          k = 0.3333-0.3044 0.1443 (  3270 PWs)   bands (ev):

   -72.9377 -72.9377 -39.1718 -39.1718 -39.0425 -39.0425 -38.8668 -38.8668
     7.3263   7.3263  10.5573  10.5573  11.6536  11.6536  12.1647  12.1647
    12.9358  12.9358  13.5744  13.5744  14.5170  14.5170  17.1650

          k = 0.3333-0.3044-0.2887 (  3264 PWs)   bands (ev):

   -72.9377 -72.9377 -39.1717 -39.1717 -39.0425 -39.0425 -38.8669 -38.8669
     7.6951   7.6951  10.1295  10.1295  11.6347  11.6347  12.3128  12.3128
    12.4495  12.4495  13.6222  13.6222  14.3362  14.3362  17.1465

          k =-0.5000 0.0000 0.0000 (  3236 PWs)   bands (ev):

   -72.9330 -72.9330 -39.1548 -39.1548 -39.0986 -39.0986 -38.8619 -38.8619
     7.9735   7.9735  10.4486  10.4486  11.2436  11.2436  12.7911  12.7911
    12.9454  12.9454  14.7547  14.7547  16.6068  16.6068  16.9317

          k =-0.5000 0.0000 0.1443 (  3244 PWs)   bands (ev):

   -72.9330 -72.9330 -39.1547 -39.1547 -39.0988 -39.0988 -38.8619 -38.8619
     8.1951   8.1951  10.4949  10.4949  11.1886  11.1886  12.6978  12.6978
    13.0021  13.0021  14.0098  14.0098  15.6977  15.6977  17.0596

          k =-0.5000 0.0000-0.2887 (  3196 PWs)   bands (ev):

   -72.9330 -72.9330 -39.1546 -39.1546 -39.0984 -39.0984 -38.8612 -38.8612
     8.4456   8.4456  10.6914  10.6914  11.1373  11.1373  12.1333  12.1333
    13.0548  13.0548  13.5129  13.5129  15.6724  15.6724  17.2037

          k =-0.5000 0.1522 0.0000 (  3244 PWs)   bands (ev):

   -72.9330 -72.9330 -39.1855 -39.1855 -39.0667 -39.0667 -38.8631 -38.8631
     8.3027   8.3027  10.6458  10.6458  11.2152  11.2152  12.1974  12.1974
    12.6686  12.6686  14.6916  14.6916  15.3214  15.3214  17.3087

          k =-0.5000 0.1522 0.1443 (  3254 PWs)   bands (ev):

   -72.9330 -72.9330 -39.1857 -39.1857 -39.0669 -39.0669 -38.8631 -38.8631
     8.5561   8.5561  10.3425  10.3425  11.5879  11.5879  12.0751  12.0751
    13.0096  13.0096  13.8081  13.8081  14.9918  14.9918  16.9552

          k =-0.5000 0.1522-0.2887 (  3236 PWs)   bands (ev):

   -72.9330 -72.9330 -39.1856 -39.1856 -39.0668 -39.0668 -38.8629 -38.8629
     8.8336   8.8336  10.3406  10.3406  11.6980  11.6980  11.9124  11.9124
    12.7578  12.7578  13.4823  13.4823  15.3245  15.3245  16.2144

          k =-0.5000-0.3044 0.0000 (  3248 PWs)   bands (ev):

   -72.9330 -72.9330 -39.2051 -39.2051 -39.0460 -39.0460 -38.8643 -38.8643
     8.8051   8.8051  10.7017  10.7017  11.0208  11.0208  11.5723  11.5723
    12.8535  12.8535  14.0081  14.0081  15.0879  15.0879  18.0056

          k =-0.5000-0.3044 0.1443 (  3244 PWs)   bands (ev):

   -72.9330 -72.9330 -39.2050 -39.2050 -39.0461 -39.0461 -38.8642 -38.8642
     9.2167   9.2167   9.9428   9.9428  11.4384  11.4384  12.1435  12.1435
    12.9535  12.9535  13.3925  13.3925  14.6285  14.6285  17.4188

          k =-0.5000-0.3044-0.2887 (  3264 PWs)   bands (ev):

   -72.9330 -72.9330 -39.2051 -39.2051 -39.0462 -39.0462 -38.8645 -38.8645
     9.6309   9.6309   9.9744   9.9744  10.9141  10.9141  12.5638  12.5638
    12.6905  12.6905  13.6720  13.6720  14.5061  14.5061  15.8367

     the Fermi energy is    13.7262 ev

!    total energy              =    -737.54489890 Ry
     total all-electron energy =     -6062.423533 Ry
     estimated scf accuracy    <          8.5E-10 Ry
     smearing contrib. (-TS)   =      -0.00037528 Ry
     internal energy E=F+TS    =    -737.54452362 Ry

     The total energy is F=E-TS. E is the sum of the following terms:
     one-electron contribution =    -360.10244527 Ry
     hartree contribution      =     200.45809534 Ry
     xc contribution           =     -75.74355575 Ry
     ewald contribution        =    -281.33793944 Ry
     one-center paw contrib.   =    -220.81867850 Ry

     convergence has been achieved in   7 iterations

     Forces acting on atoms (cartesian axes, Ry/au):

     atom    1 type  1   force =     0.00000000    0.00000000   -0.01039230
     atom    2 type  1   force =     0.00000000    0.00000000    0.01039230
     atom    3 type  2   force =     0.00000000    0.00000000   -0.01956894
     atom    4 type  2   force =     0.00000000    0.00000000    0.01956894

     Total force =     0.031335     Total SCF correction =     0.000061


     Computing stress (Cartesian axis) and pressure

          total   stress  (Ry/bohr**3)                   (kbar)     P=      -16.19
   0.00075546   0.00000000   0.00000000          111.13        0.00        0.00
   0.00000000  -0.00014886   0.00000000            0.00      -21.90        0.00
   0.00000000   0.00000000  -0.00093672            0.00        0.00     -137.80

     Energy error            =      1.1E-03 Ry
     Gradient error          =      2.0E-02 Ry/Bohr

     number of scf cycles    =   2
     number of bfgs steps    =   1

     energy             old  =    -737.5437708619 Ry
     energy             new  =    -737.5448989006 Ry

     CASE: energy            _new < energy            _old


     WARNING: bfgs curvature condition failed, Theta= 0.879
     new trust radius        =       0.0242762519 bohr
     new conv_thr            =       0.0000000001 Ry


ATOMIC_POSITIONS (angstrom)
Fe               1.9359767605        3.1804352811        4.0863789201
Fe               0.6453255868        1.0601450937        0.3845653288
Al               0.6453255868        3.1804352811        1.8383684181
Al               1.9359767605        1.0601450937        2.6325758308



     Writing config-only to output data dir ./FeAl.save/ :
     XML data file
     NEW-OLD atomic charge density approx. for the potential

     Check: negative core charge=   -0.000012

     total cpu time spent up to now is      158.8 secs

     Self-consistent Calculation

     iteration #  1     ecut=    70.00 Ry     beta= 0.70
     Davidson diagonalization with overlap
     ethr =  1.00E-06,  avg # of iterations =  7.8

     total cpu time spent up to now is      170.3 secs

     total energy              =    -737.54599645 Ry
     estimated scf accuracy    <       0.00008812 Ry

     iteration #  2     ecut=    70.00 Ry     beta= 0.70
     Davidson diagonalization with overlap
     ethr =  2.32E-07,  avg # of iterations =  4.3

     total cpu time spent up to now is      177.4 secs

     total energy              =    -737.54588039 Ry
     estimated scf accuracy    <       0.00157746 Ry

     iteration #  3     ecut=    70.00 Ry     beta= 0.70
     Davidson diagonalization with overlap
     ethr =  2.32E-07,  avg # of iterations =  4.1

     total cpu time spent up to now is      184.4 secs

     total energy              =    -737.54603844 Ry
     estimated scf accuracy    <       0.00002413 Ry

     iteration #  4     ecut=    70.00 Ry     beta= 0.70
     Davidson diagonalization with overlap
     ethr =  6.35E-08,  avg # of iterations =  1.9

     total cpu time spent up to now is      189.5 secs

     total energy              =    -737.54604115 Ry
     estimated scf accuracy    <       0.00000120 Ry

     iteration #  5     ecut=    70.00 Ry     beta= 0.70
     Davidson diagonalization with overlap
     ethr =  3.15E-09,  avg # of iterations =  4.9

     total cpu time spent up to now is      196.9 secs

     total energy              =    -737.54604181 Ry
     estimated scf accuracy    <       0.00000003 Ry

     iteration #  6     ecut=    70.00 Ry     beta= 0.70
     Davidson diagonalization with overlap
     ethr =  7.23E-11,  avg # of iterations =  6.7

     total cpu time spent up to now is      205.9 secs

     total energy              =    -737.54604186 Ry
     estimated scf accuracy    <          5.4E-09 Ry

     iteration #  7     ecut=    70.00 Ry     beta= 0.70
     Davidson diagonalization with overlap
     ethr =  1.42E-11,  avg # of iterations =  2.7

     total cpu time spent up to now is      211.5 secs

     total energy              =    -737.54604186 Ry
     estimated scf accuracy    <          5.8E-10 Ry

     iteration #  8     ecut=    70.00 Ry     beta= 0.70
     Davidson diagonalization with overlap
     ethr =  1.53E-12,  avg # of iterations =  5.3

     total cpu time spent up to now is      219.3 secs

     End of self-consistent calculation

          k = 0.0000 0.0000 0.0000 (  3263 PWs)   bands (ev):

   -72.9671 -72.9324 -39.2146 -39.0066 -39.0045 -38.9479 -38.8835 -38.8815
     2.7996   8.9528   9.8545  10.2059  10.5105  11.5672  11.8877  12.5495
    12.8799  12.9144  13.5949  13.7337  14.4926  14.5247  15.8699

          k = 0.0000 0.0000 0.1443 (  3295 PWs)   bands (ev):

   -72.9671 -72.9325 -39.2148 -39.0069 -39.0050 -38.9483 -38.8838 -38.8820
     3.2009   7.4965   9.7331   9.8234  11.2811  11.9242  12.4633  12.6064
    12.8861  12.9095  13.5623  13.7462  14.3323  14.4881  17.0231

          k = 0.0000 0.0000-0.2887 (  3282 PWs)   bands (ev):

   -72.9671 -72.9325 -39.2147 -39.0070 -39.0050 -38.9480 -38.8839 -38.8819
     3.8405   6.1473   9.4542  10.1915  11.8282  11.8426  12.1557  12.8924
    12.8979  13.5338  13.6237  13.7547  14.2432  14.4836  15.0661

          k = 0.0000 0.1522 0.0000 (  3253 PWs)   bands (ev):

   -72.9620 -72.9375 -39.1875 -39.0434 -38.9962 -38.9564 -38.8797 -38.8754
     3.3168   7.0890  10.1425  10.2141  10.9299  11.4665  12.4092  12.8652
    12.9407  12.9883  13.6026  13.7186  14.3350  14.3461  17.4224

          k = 0.0000 0.1522 0.1443 (  3272 PWs)   bands (ev):

   -72.9620 -72.9375 -39.1877 -39.0435 -38.9965 -38.9565 -38.8800 -38.8758
     3.7036   7.2911   8.1620  10.3292  11.4422  11.5854  12.3468  12.6108
    12.9855  13.2844  13.6005  13.7029  14.3422  14.4003  17.3444

          k = 0.0000 0.1522-0.2887 (  3280 PWs)   bands (ev):

   -72.9620 -72.9375 -39.1876 -39.0435 -38.9967 -38.9565 -38.8803 -38.8762
     4.3058   6.6668   7.8225   9.8444  11.6868  11.8058  12.2561  12.3177
    12.9826  13.5981  13.6883  13.7593  13.8567  14.3487  17.0770

          k = 0.0000-0.3044 0.0000 (  3298 PWs)   bands (ev):

   -72.9498 -72.9498 -39.1196 -39.1196 -38.9769 -38.9769 -38.8743 -38.8743
     4.8152   4.8152  10.3813  10.3813  11.3708  11.3708  12.4288  12.4288
    13.2823  13.2823  13.7563  13.7563  14.0127  14.0127  16.8044

          k = 0.0000-0.3044 0.1443 (  3264 PWs)   bands (ev):

   -72.9498 -72.9498 -39.1195 -39.1195 -38.9764 -38.9764 -38.8742 -38.8742
     5.1590   5.1590   9.2887   9.2887  11.5523  11.5523  12.1425  12.1425
    13.2699  13.2699  13.9136  13.9136  14.0207  14.0207  18.5025

          k = 0.0000-0.3044-0.2887 (  3260 PWs)   bands (ev):

   -72.9498 -72.9498 -39.1195 -39.1195 -38.9762 -38.9762 -38.8744 -38.8744
     5.6606   5.6606   8.2454   8.2454  11.6457  11.6457  11.9878  11.9878
    13.2577  13.2577  14.0012  14.0012  14.0285  14.0285  20.7315

          k = 0.1667 0.0000 0.0000 (  3287 PWs)   bands (ev):

   -72.9601 -72.9301 -39.1966 -39.0466 -39.0163 -38.9982 -38.8778 -38.8757
     3.4216   9.2955  10.2470  10.5707  10.9653  11.6032  11.8170  12.5300
    12.6481  12.8021  13.4982  14.0411  14.7633  14.8244  15.9485

          k = 0.1667 0.0000 0.1443 (  3282 PWs)   bands (ev):

   -72.9601 -72.9301 -39.1964 -39.0467 -39.0164 -38.9983 -38.8778 -38.8757
     3.8051   8.0221  10.1000  10.3020  11.5239  11.8386  12.2360  12.6060
    12.6094  12.9702  13.4539  13.5591  14.7134  14.8370  17.4356

          k = 0.1667 0.0000-0.2887 (  3286 PWs)   bands (ev):

   -72.9601 -72.9301 -39.1964 -39.0466 -39.0164 -38.9983 -38.8783 -38.8759
     4.3999   6.7857   9.8315  10.5910  11.8060  12.0295  12.3751  12.5393
    12.6957  13.3187  13.5137  13.5688  13.7667  15.2305  16.1988

          k = 0.1667 0.1522 0.0000 (  3279 PWs)   bands (ev):

   -72.9557 -72.9345 -39.1773 -39.0605 -39.0346 -38.9907 -38.8751 -38.8729
     3.9291   7.6235  10.4008  10.5801  11.2477  11.4631  12.4323  12.4668
    12.7488  12.9164  13.7316  13.7476  14.7506  14.8398  17.4660

          k = 0.1667 0.1522 0.1443 (  3266 PWs)   bands (ev):

   -72.9557 -72.9345 -39.1772 -39.0603 -39.0346 -38.9906 -38.8752 -38.8728
     4.2987   7.7914   8.7199  10.7515  11.4985  11.6851  12.2364  12.4537
    12.7091  13.2155  13.5404  13.7275  14.1413  15.2136  17.4852

          k = 0.1667 0.1522-0.2887 (  3282 PWs)   bands (ev):

   -72.9557 -72.9345 -39.1773 -39.0604 -39.0347 -38.9907 -38.8757 -38.8730
     4.8598   7.2668   8.3368  10.3650  11.8419  11.9193  11.9435  12.4509
    12.6546  13.2801  13.3607  13.7637  13.9813  14.8873  17.3103

          k = 0.1667-0.3044 0.0000 (  3258 PWs)   bands (ev):

   -72.9451 -72.9451 -39.1256 -39.1256 -39.0085 -39.0085 -38.8711 -38.8711
     5.4003   5.4003  10.7582  10.7582  11.5825  11.5825  12.0124  12.0124
    13.1190  13.1190  13.7007  13.7007  14.8238  14.8238  16.9855

          k = 0.1667-0.3044 0.1443 (  3264 PWs)   bands (ev):

   -72.9451 -72.9451 -39.1256 -39.1256 -39.0085 -39.0085 -38.8713 -38.8713
     5.7270   5.7270   9.7762   9.7762  11.7536  11.7536  12.0000  12.0000
    13.0381  13.0381  13.8289  13.8289  14.2110  14.2110  19.0157

          k = 0.1667-0.3044-0.2887 (  3252 PWs)   bands (ev):

   -72.9450 -72.9450 -39.1256 -39.1256 -39.0082 -39.0082 -38.8715 -38.8715
     6.1928   6.1928   8.8289   8.8289  11.8332  11.8332  11.9903  11.9903
    12.9528  12.9528  13.7871  13.7871  14.1244  14.1244  20.4865

          k = 0.3333 0.0000 0.0000 (  3275 PWs)   bands (ev):

   -72.9443 -72.9270 -39.1495 -39.1257 -39.0979 -39.0454 -38.8673 -38.8661
     5.2253   9.9203  10.6405  10.8769  11.1692  11.4510  12.0510  12.3985
    12.8918  12.8969  14.0592  14.8543  15.3578  15.4331  15.5401

          k = 0.3333 0.0000 0.1443 (  3268 PWs)   bands (ev):

   -72.9443 -72.9270 -39.1497 -39.1256 -39.0978 -39.0455 -38.8671 -38.8659
     5.5529   9.3079  10.7275  10.8582  11.1746  11.5497  11.9173  12.4856
    12.8032  13.1712  13.5418  14.0657  14.6431  15.5122  17.0193

          k = 0.3333 0.0000-0.2887 (  3256 PWs)   bands (ev):

   -72.9443 -72.9270 -39.1497 -39.1256 -39.0977 -39.0454 -38.8671 -38.8657
     6.0209   8.5194  10.6691  10.9530  11.1861  11.5626  12.3619  12.4029
    12.5299  13.2902  13.4524  13.7814  14.1220  15.7859  17.9836

          k = 0.3333 0.1522 0.0000 (  3279 PWs)   bands (ev):

   -72.9418 -72.9295 -39.1728 -39.1313 -39.0836 -39.0312 -38.8666 -38.8666
     5.6967   9.0074  10.5570  10.8709  11.3468  11.6954  11.9845  12.0846
    12.8338  13.1254  14.0062  14.2434  15.3624  15.6770  15.8948

          k = 0.3333 0.1522 0.1443 (  3263 PWs)   bands (ev):

   -72.9418 -72.9295 -39.1725 -39.1312 -39.0836 -39.0312 -38.8666 -38.8663
     6.0142   9.0979  10.0257  10.9081  11.2455  11.6280  12.0175  12.2942
    13.0106  13.0804  13.5668  13.9814  14.1625  15.3070  17.3200

          k = 0.3333 0.1522-0.2887 (  3246 PWs)   bands (ev):

   -72.9418 -72.9295 -39.1723 -39.1309 -39.0834 -39.0313 -38.8666 -38.8661
     6.4618   8.7926   9.7998  11.1077  11.2585  11.4250  12.2230  12.3484
    12.3711  12.9698  13.5143  13.7757  14.0446  15.9181  16.3153

          k = 0.3333-0.3044 0.0000 (  3240 PWs)   bands (ev):

   -72.9356 -72.9356 -39.1682 -39.1682 -39.0408 -39.0408 -38.8661 -38.8661
     7.0538   7.0538  11.0905  11.0905  11.4212  11.4212  12.0946  12.0946
    12.9322  12.9322  13.7252  13.7252  15.7939  15.7939  16.7016

          k = 0.3333-0.3044 0.1443 (  3270 PWs)   bands (ev):

   -72.9356 -72.9356 -39.1684 -39.1684 -39.0411 -39.0411 -38.8664 -38.8664
     7.3356   7.3356  10.5565  10.5565  11.6608  11.6608  12.1553  12.1553
    12.9348  12.9348  13.5636  13.5636  14.5190  14.5190  17.1791

          k = 0.3333-0.3044-0.2887 (  3264 PWs)   bands (ev):

   -72.9356 -72.9356 -39.1682 -39.1682 -39.0410 -39.0410 -38.8665 -38.8665
     7.7082   7.7082  10.1195  10.1195  11.6369  11.6369  12.3184  12.3184
    12.4450  12.4450  13.6224  13.6224  14.3247  14.3247  17.1708

          k =-0.5000 0.0000 0.0000 (  3236 PWs)   bands (ev):

   -72.9309 -72.9309 -39.1555 -39.1555 -39.0929 -39.0929 -38.8615 -38.8615
     7.9826   7.9826  10.4337  10.4337  11.2413  11.2413  12.8059  12.8059
    12.9429  12.9429  14.7600  14.7600  16.5819  16.5819  16.9726

          k =-0.5000 0.0000 0.1443 (  3244 PWs)   bands (ev):

   -72.9309 -72.9309 -39.1555 -39.1555 -39.0931 -39.0931 -38.8616 -38.8616
     8.2050   8.2050  10.4784  10.4784  11.1846  11.1846  12.7143  12.7143
    13.0042  13.0042  14.0049  14.0049  15.7012  15.7012  17.0964

          k =-0.5000 0.0000-0.2887 (  3196 PWs)   bands (ev):

   -72.9309 -72.9309 -39.1553 -39.1553 -39.0927 -39.0927 -38.8609 -38.8609
     8.4564   8.4564  10.6715  10.6715  11.1318  11.1318  12.1437  12.1437
    13.0612  13.0612  13.5172  13.5172  15.6798  15.6798  17.2363

          k =-0.5000 0.1522 0.0000 (  3244 PWs)   bands (ev):

   -72.9309 -72.9309 -39.1838 -39.1838 -39.0635 -39.0635 -38.8628 -38.8628
     8.3101   8.3101  10.6407  10.6407  11.2123  11.2123  12.2098  12.2098
    12.6662  12.6662  14.6868  14.6868  15.3259  15.3259  17.3062

          k =-0.5000 0.1522 0.1443 (  3254 PWs)   bands (ev):

   -72.9309 -72.9309 -39.1839 -39.1839 -39.0637 -39.0637 -38.8628 -38.8628
     8.5649   8.5649  10.3370  10.3370  11.5805  11.5805  12.0872  12.0872
    13.0113  13.0113  13.8025  13.8025  14.9975  14.9975  16.9671

          k =-0.5000 0.1522-0.2887 (  3236 PWs)   bands (ev):

   -72.9309 -72.9309 -39.1838 -39.1838 -39.0636 -39.0636 -38.8625 -38.8625
     8.8447   8.8447  10.3305  10.3305  11.7123  11.7123  11.8982  11.8982
    12.7647  12.7647  13.4786  13.4786  15.3283  15.3283  16.2353

          k =-0.5000-0.3044 0.0000 (  3248 PWs)   bands (ev):

   -72.9309 -72.9309 -39.2026 -39.2026 -39.0436 -39.0436 -38.8640 -38.8640
     8.8086   8.8086  10.7074  10.7074  11.0239  11.0239  11.5932  11.5932
    12.8364  12.8364  13.9855  13.9855  15.0932  15.0932  18.0145

          k =-0.5000-0.3044 0.1443 (  3244 PWs)   bands (ev):

   -72.9309 -72.9309 -39.2024 -39.2024 -39.0437 -39.0437 -38.8639 -38.8639
     9.2199   9.2199   9.9499   9.9499  11.4585  11.4585  12.1337  12.1337
    12.9461  12.9461  13.3813  13.3813  14.6289  14.6289  17.4367

          k =-0.5000-0.3044-0.2887 (  3264 PWs)   bands (ev):

   -72.9309 -72.9309 -39.2025 -39.2025 -39.0438 -39.0438 -38.8642 -38.8642
     9.6385   9.6385   9.9750   9.9750  10.9318  10.9318  12.5373  12.5373
    12.6921  12.6921  13.6747  13.6747  14.5004  14.5004  15.8607

     the Fermi energy is    13.7236 ev

!    total energy              =    -737.54604186 Ry
     total all-electron energy =     -6062.424676 Ry
     estimated scf accuracy    <          1.3E-11 Ry
     smearing contrib. (-TS)   =      -0.00039956 Ry
     internal energy E=F+TS    =    -737.54564230 Ry

     The total energy is F=E-TS. E is the sum of the following terms:
     one-electron contribution =    -359.76073380 Ry
     hartree contribution      =     200.28965086 Ry
     xc contribution           =     -75.74481782 Ry
     ewald contribution        =    -281.51148645 Ry
     one-center paw contrib.   =    -220.81825507 Ry

     convergence has been achieved in   8 iterations

     Forces acting on atoms (cartesian axes, Ry/au):

     atom    1 type  1   force =     0.00000000    0.00000000   -0.01034685
     atom    2 type  1   force =     0.00000000    0.00000000    0.01034685
     atom    3 type  2   force =     0.00000000    0.00000000   -0.01682681
     atom    4 type  2   force =     0.00000000    0.00000000    0.01682681

     Total force =     0.027936     Total SCF correction =     0.000005


     Computing stress (Cartesian axis) and pressure

          total   stress  (Ry/bohr**3)                   (kbar)     P=      -16.45
   0.00073071   0.00000000   0.00000000          107.49        0.00        0.00
   0.00000000  -0.00017302   0.00000000            0.00      -25.45        0.00
   0.00000000   0.00000000  -0.00089319            0.00        0.00     -131.39

     Energy error            =      1.1E-03 Ry
     Gradient error          =      1.7E-02 Ry/Bohr

     number of scf cycles    =   3
     number of bfgs steps    =   2

     energy             old  =    -737.5448989006 Ry
     energy             new  =    -737.5460418633 Ry

     CASE: energy            _new < energy            _old

     new trust radius        =       0.0364143778 bohr
     new conv_thr            =       0.0000000001 Ry


ATOMIC_POSITIONS (angstrom)
Fe               1.9359767605        3.1804352811        4.0752436624
Fe               0.6453255868        1.0601450937        0.3957005865
Al               0.6453255868        3.1804352811        1.8190987592
Al               1.9359767605        1.0601450937        2.6518454897



     Writing config-only to output data dir ./FeAl.save/ :
     XML data file
     NEW-OLD atomic charge density approx. for the potential

     Check: negative core charge=   -0.000012

     total cpu time spent up to now is      226.1 secs

     Self-consistent Calculation

     iteration #  1     ecut=    70.00 Ry     beta= 0.70
     Davidson diagonalization with overlap
     ethr =  1.00E-06,  avg # of iterations =  9.5

     total cpu time spent up to now is      241.0 secs

     total energy              =    -737.54746914 Ry
     estimated scf accuracy    <       0.00019202 Ry

     iteration #  2     ecut=    70.00 Ry     beta= 0.70
     Davidson diagonalization with overlap
     ethr =  5.05E-07,  avg # of iterations =  4.2

     total cpu time spent up to now is      249.3 secs

     total energy              =    -737.54726689 Ry
     estimated scf accuracy    <       0.00228360 Ry

     iteration #  3     ecut=    70.00 Ry     beta= 0.70
     Davidson diagonalization with overlap
     ethr =  5.05E-07,  avg # of iterations =  3.9

     total cpu time spent up to now is      255.1 secs

     total energy              =    -737.54752553 Ry
     estimated scf accuracy    <       0.00013190 Ry

     iteration #  4     ecut=    70.00 Ry     beta= 0.70
     Davidson diagonalization with overlap
     ethr =  3.47E-07,  avg # of iterations =  1.7

     total cpu time spent up to now is      260.4 secs

     total energy              =    -737.54753844 Ry
     estimated scf accuracy    <       0.00000359 Ry

     iteration #  5     ecut=    70.00 Ry     beta= 0.70
     Davidson diagonalization with overlap
     ethr =  9.46E-09,  avg # of iterations =  4.6

     total cpu time spent up to now is      269.0 secs

     total energy              =    -737.54754032 Ry
     estimated scf accuracy    <       0.00000029 Ry

     iteration #  6     ecut=    70.00 Ry     beta= 0.70
     Davidson diagonalization with overlap
     ethr =  7.61E-10,  avg # of iterations =  4.7

     total cpu time spent up to now is      276.1 secs

     total energy              =    -737.54754043 Ry
     estimated scf accuracy    <       0.00000004 Ry

     iteration #  7     ecut=    70.00 Ry     beta= 0.70
     Davidson diagonalization with overlap
     ethr =  9.79E-11,  avg # of iterations =  4.4

     total cpu time spent up to now is      283.3 secs

     total energy              =    -737.54754044 Ry
     estimated scf accuracy    <          1.2E-09 Ry

     iteration #  8     ecut=    70.00 Ry     beta= 0.70
     Davidson diagonalization with overlap
     ethr =  3.25E-12,  avg # of iterations =  6.5

     total cpu time spent up to now is      291.9 secs

     End of self-consistent calculation

          k = 0.0000 0.0000 0.0000 (  3263 PWs)   bands (ev):

   -72.9650 -72.9315 -39.2028 -39.0087 -39.0012 -38.9539 -38.8832 -38.8830
     2.8138   8.9106   9.8521  10.2252  10.5277  11.5901  11.9319  12.5251
    12.8706  12.8976  13.5971  13.7188  14.4732  14.5089  15.8698

          k = 0.0000 0.0000 0.1443 (  3295 PWs)   bands (ev):

   -72.9650 -72.9315 -39.2030 -39.0091 -39.0014 -38.9543 -38.8837 -38.8833
     3.2182   7.4747   9.7553   9.8157  11.2721  11.9677  12.4360  12.6211
    12.8672  12.9040  13.5637  13.7322  14.3444  14.4685  17.0168

          k = 0.0000 0.0000-0.2887 (  3282 PWs)   bands (ev):

   -72.9650 -72.9315 -39.2029 -39.0091 -39.0016 -38.9540 -38.8836 -38.8833
     3.8686   6.1198   9.4775  10.1816  11.7934  11.8663  12.1560  12.8534
    12.9105  13.5351  13.6608  13.7410  14.2215  14.4638  15.1283

          k = 0.0000 0.1522 0.0000 (  3253 PWs)   bands (ev):

   -72.9601 -72.9364 -39.1768 -39.0372 -39.0006 -38.9621 -38.8795 -38.8764
     3.3312   7.0947  10.1375  10.2082  10.9310  11.4851  12.3899  12.8367
    12.9450  12.9980  13.5890  13.7216  14.3168  14.3233  17.4215

          k = 0.0000 0.1522 0.1443 (  3272 PWs)   bands (ev):

   -72.9601 -72.9364 -39.1770 -39.0374 -39.0009 -38.9622 -38.8799 -38.8767
     3.7211   7.2907   8.1636  10.3293  11.4370  11.5923  12.3264  12.5968
    12.9948  13.2652  13.5870  13.7061  14.3307  14.4026  17.3876

          k = 0.0000 0.1522-0.2887 (  3280 PWs)   bands (ev):

   -72.9601 -72.9364 -39.1769 -39.0375 -39.0011 -38.9622 -38.8802 -38.8770
     4.3332   6.6384   7.8513   9.8308  11.6695  11.8323  12.2375  12.2851
    12.9915  13.5846  13.6919  13.7311  13.8885  14.3375  17.1387

          k = 0.0000-0.3044 0.0000 (  3298 PWs)   bands (ev):

   -72.9483 -72.9483 -39.1113 -39.1113 -38.9820 -38.9820 -38.8745 -38.8745
     4.8292   4.8292  10.3754  10.3754  11.3740  11.3740  12.4209  12.4209
    13.2772  13.2772  13.7136  13.7136  14.0123  14.0123  16.8456

          k = 0.0000-0.3044 0.1443 (  3264 PWs)   bands (ev):

   -72.9482 -72.9482 -39.1112 -39.1112 -38.9814 -38.9814 -38.8744 -38.8744
     5.1760   5.1760   9.2779   9.2779  11.5537  11.5537  12.1297  12.1297
    13.2643  13.2643  13.8975  13.8975  14.0210  14.0210  18.5296

          k = 0.0000-0.3044-0.2887 (  3260 PWs)   bands (ev):

   -72.9482 -72.9482 -39.1112 -39.1112 -38.9813 -38.9813 -38.8747 -38.8747
     5.6854   5.6854   8.2257   8.2257  11.6467  11.6467  11.9734  11.9734
    13.2518  13.2518  13.9968  13.9968  14.0293  14.0293  20.7815

          k = 0.1667 0.0000 0.0000 (  3287 PWs)   bands (ev):

   -72.9581 -72.9290 -39.1853 -39.0508 -39.0105 -39.0040 -38.8776 -38.8772
     3.4360   9.2545  10.2362  10.5867  10.9853  11.6188  11.8483  12.4923
    12.6367  12.8214  13.5037  14.0343  14.7633  14.8048  15.9502

          k = 0.1667 0.0000 0.1443 (  3282 PWs)   bands (ev):

   -72.9581 -72.9290 -39.1851 -39.0509 -39.0106 -39.0040 -38.8778 -38.8770
     3.8226   7.9974  10.1182  10.2914  11.5186  11.8648  12.2287  12.5979
    12.5993  12.9760  13.4553  13.5552  14.7194  14.8458  17.4276

          k = 0.1667 0.0000-0.2887 (  3286 PWs)   bands (ev):

   -72.9581 -72.9290 -39.1850 -39.0508 -39.0105 -39.0041 -38.8782 -38.8772
     4.4274   6.7565   9.8506  10.5770  11.8272  12.0043  12.3436  12.5392
    12.7148  13.3225  13.5029  13.5501  13.8010  15.2894  16.1675

          k = 0.1667 0.1522 0.0000 (  3279 PWs)   bands (ev):

   -72.9538 -72.9333 -39.1671 -39.0560 -39.0388 -38.9943 -38.8751 -38.8738
     3.9436   7.6278  10.4000  10.5683  11.2478  11.4780  12.4155  12.4694
    12.7451  12.9061  13.7165  13.7487  14.7239  14.8443  17.4780

          k = 0.1667 0.1522 0.1443 (  3266 PWs)   bands (ev):

   -72.9538 -72.9333 -39.1670 -39.0559 -39.0389 -38.9942 -38.8752 -38.8737
     4.3164   7.7887   8.7223  10.7472  11.4971  11.6824  12.2327  12.4539
    12.7074  13.1961  13.5291  13.7279  14.1447  15.2010  17.5238

          k = 0.1667 0.1522-0.2887 (  3282 PWs)   bands (ev):

   -72.9538 -72.9333 -39.1671 -39.0559 -39.0389 -38.9943 -38.8757 -38.8739
     4.8869   7.2369   8.3654  10.3473  11.8275  11.9271  11.9356  12.4501
    12.6561  13.2594  13.3745  13.7518  13.9960  14.8640  17.3704

          k = 0.1667-0.3044 0.0000 (  3258 PWs)   bands (ev):

   -72.9435 -72.9435 -39.1180 -39.1180 -39.0126 -39.0126 -38.8715 -38.8715
     5.4140   5.4140  10.7604  10.7604  11.5734  11.5734  12.0133  12.0133
    13.1090  13.1090  13.6744  13.6744  14.8097  14.8097  17.0204

          k = 0.1667-0.3044 0.1443 (  3264 PWs)   bands (ev):

   -72.9435 -72.9435 -39.1181 -39.1181 -39.0127 -39.0127 -38.8717 -38.8717
     5.7437   5.7437   9.7655   9.7655  11.7526  11.7526  11.9998  11.9998
    13.0244  13.0244  13.8183  13.8183  14.2074  14.2074  19.0299

          k = 0.1667-0.3044-0.2887 (  3252 PWs)   bands (ev):

   -72.9435 -72.9435 -39.1181 -39.1181 -39.0124 -39.0124 -38.8718 -38.8718
     6.2169   6.2169   8.8084   8.8084  11.8364  11.8364  11.9862  11.9862
    12.9378  12.9378  13.8014  13.8014  14.1059  14.1059  20.5150

          k = 0.3333 0.0000 0.0000 (  3275 PWs)   bands (ev):

   -72.9425 -72.9257 -39.1393 -39.1303 -39.1033 -39.0384 -38.8674 -38.8672
     5.2401   9.8939  10.6151  10.8785  11.1687  11.4534  12.0813  12.3786
    12.9116  12.9204  14.0493  14.8609  15.3970  15.4386  15.5125

          k = 0.3333 0.0000 0.1443 (  3268 PWs)   bands (ev):

   -72.9425 -72.9257 -39.1395 -39.1301 -39.1033 -39.0385 -38.8674 -38.8669
     5.5706   9.2775  10.7168  10.8612  11.1674  11.5380  11.9415  12.4944
    12.8280  13.1679  13.5344  14.0541  14.6593  15.5555  17.0275

          k = 0.3333 0.0000-0.2887 (  3256 PWs)   bands (ev):

   -72.9425 -72.9257 -39.1395 -39.1301 -39.1031 -39.0384 -38.8673 -38.8666
     6.0462   8.4850  10.6722  10.9581  11.1663  11.5447  12.3536  12.4352
    12.5524  13.2833  13.4416  13.8109  14.1203  15.8391  17.9805

          k = 0.3333 0.1522 0.0000 (  3279 PWs)   bands (ev):

   -72.9400 -72.9282 -39.1683 -39.1319 -39.0831 -39.0285 -38.8675 -38.8668
     5.7111   9.0070  10.5564  10.8590  11.3526  11.6831  11.9805  12.1131
    12.8315  13.1281  13.9854  14.2205  15.3802  15.6614  15.9110

          k = 0.3333 0.1522 0.1443 (  3263 PWs)   bands (ev):

   -72.9400 -72.9281 -39.1680 -39.1318 -39.0831 -39.0285 -38.8672 -38.8668
     6.0315   9.0880  10.0300  10.9068  11.2397  11.6169  12.0116  12.3240
    13.0141  13.0733  13.5594  13.9619  14.1668  15.3246  17.3125

          k = 0.3333 0.1522-0.2887 (  3246 PWs)   bands (ev):

   -72.9400 -72.9281 -39.1678 -39.1314 -39.0829 -39.0286 -38.8669 -38.8669
     6.4868   8.7621   9.8240  11.0962  11.2527  11.4034  12.2420  12.3674
    12.3726  12.9617  13.5105  13.7863  14.0292  15.8940  16.3633

          k = 0.3333-0.3044 0.0000 (  3240 PWs)   bands (ev):

   -72.9341 -72.9341 -39.1654 -39.1654 -39.0400 -39.0400 -38.8665 -38.8665
     7.0656   7.0656  11.1022  11.1022  11.4316  11.4316  12.0758  12.0758
    12.9246  12.9246  13.6932  13.6932  15.7997  15.7997  16.7110

          k = 0.3333-0.3044 0.1443 (  3270 PWs)   bands (ev):

   -72.9341 -72.9341 -39.1657 -39.1657 -39.0403 -39.0403 -38.8669 -38.8669
     7.3502   7.3502  10.5549  10.5549  11.6709  11.6709  12.1401  12.1401
    12.9305  12.9305  13.5457  13.5457  14.5207  14.5207  17.2009

          k = 0.3333-0.3044-0.2887 (  3264 PWs)   bands (ev):

   -72.9341 -72.9341 -39.1655 -39.1655 -39.0403 -39.0403 -38.8670 -38.8670
     7.7288   7.7288  10.1036  10.1036  11.6391  11.6391  12.3226  12.3226
    12.4403  12.4403  13.6220  13.6220  14.3037  14.3037  17.2094

          k =-0.5000 0.0000 0.0000 (  3236 PWs)   bands (ev):

   -72.9293 -72.9293 -39.1605 -39.1605 -39.0843 -39.0843 -38.8622 -38.8622
     7.9966   7.9966  10.4107  10.4107  11.2365  11.2365  12.8257  12.8257
    12.9379  12.9379  14.7666  14.7666  16.5416  16.5416  17.0373

          k =-0.5000 0.0000 0.1443 (  3244 PWs)   bands (ev):

   -72.9294 -72.9294 -39.1604 -39.1604 -39.0845 -39.0845 -38.8622 -38.8622
     8.2202   8.2202  10.4531  10.4531  11.1768  11.1768  12.7377  12.7377
    13.0068  13.0068  13.9958  13.9958  15.7051  15.7051  17.1542

          k =-0.5000 0.0000-0.2887 (  3196 PWs)   bands (ev):

   -72.9293 -72.9293 -39.1603 -39.1603 -39.0841 -39.0841 -38.8616 -38.8616
     8.4728   8.4728  10.6414  10.6414  11.1216  11.1216  12.1581  12.1581
    13.0709  13.0709  13.5221  13.5221  15.6892  15.6892  17.2868

          k =-0.5000 0.1522 0.0000 (  3244 PWs)   bands (ev):

   -72.9293 -72.9293 -39.1845 -39.1845 -39.0593 -39.0593 -38.8634 -38.8634
     8.3214   8.3214  10.6324  10.6324  11.2073  11.2073  12.2248  12.2248
    12.6643  12.6643  14.6755  14.6755  15.3323  15.3323  17.3036

          k =-0.5000 0.1522 0.1443 (  3254 PWs)   bands (ev):

   -72.9294 -72.9294 -39.1846 -39.1846 -39.0594 -39.0594 -38.8634 -38.8634
     8.5783   8.5783  10.3279  10.3279  11.5670  11.5670  12.1061  12.1061
    13.0126  13.0126  13.7931  13.7931  15.0050  15.0050  16.9845

          k =-0.5000 0.1522-0.2887 (  3236 PWs)   bands (ev):

   -72.9294 -72.9294 -39.1845 -39.1845 -39.0593 -39.0593 -38.8631 -38.8631
     8.8615   8.8615  10.3146  10.3146  11.7283  11.7283  11.8796  11.8796
    12.7773  12.7773  13.4697  13.4697  15.3324  15.3324  16.2679

          k =-0.5000-0.3044 0.0000 (  3248 PWs)   bands (ev):

   -72.9293 -72.9293 -39.2017 -39.2017 -39.0410 -39.0410 -38.8645 -38.8645
     8.8135   8.8135  10.7149  10.7149  11.0280  11.0280  11.6269  11.6269
    12.8089  12.8089  13.9463  13.9463  15.0999  15.0999  18.0309

          k =-0.5000-0.3044 0.1443 (  3244 PWs)   bands (ev):

   -72.9293 -72.9293 -39.2015 -39.2015 -39.0411 -39.0411 -38.8645 -38.8645
     9.2242   9.2242   9.9602   9.9602  11.4906  11.4906  12.1161  12.1161
    12.9349  12.9349  13.3621  13.3621  14.6278  14.6278  17.4649

          k =-0.5000-0.3044-0.2887 (  3264 PWs)   bands (ev):

   -72.9294 -72.9294 -39.2016 -39.2016 -39.0413 -39.0413 -38.8647 -38.8647
     9.6498   9.6498   9.9746   9.9746  10.9597  10.9597  12.4945  12.4945
    12.6957  12.6957  13.6778  13.6778  14.4888  14.4888  15.8984

     the Fermi energy is    13.7145 ev

!    total energy              =    -737.54754045 Ry
     total all-electron energy =     -6062.426175 Ry
     estimated scf accuracy    <          9.3E-11 Ry
     smearing contrib. (-TS)   =      -0.00036988 Ry
     internal energy E=F+TS    =    -737.54717057 Ry

     The total energy is F=E-TS. E is the sum of the following terms:
     one-electron contribution =    -359.14137945 Ry
     hartree contribution      =     199.98146472 Ry
     xc contribution           =     -75.74685395 Ry
     ewald contribution        =    -281.82271958 Ry
     one-center paw contrib.   =    -220.81768231 Ry

     convergence has been achieved in   8 iterations

     Forces acting on atoms (cartesian axes, Ry/au):

     atom    1 type  1   force =     0.00000000    0.00000000   -0.00971802
     atom    2 type  1   force =     0.00000000    0.00000000    0.00971802
     atom    3 type  2   force =     0.00000000    0.00000000   -0.01268262
     atom    4 type  2   force =     0.00000000    0.00000000    0.01268262

     Total force =     0.022596     Total SCF correction =     0.000070


     Computing stress (Cartesian axis) and pressure

          total   stress  (Ry/bohr**3)                   (kbar)     P=      -16.77
   0.00068025   0.00000000   0.00000000          100.07        0.00        0.00
   0.00000000  -0.00019792   0.00000000            0.00      -29.11        0.00
   0.00000000   0.00000000  -0.00082430            0.00        0.00     -121.26

     Energy error            =      1.5E-03 Ry
     Gradient error          =      1.3E-02 Ry/Bohr

     number of scf cycles    =   4
     number of bfgs steps    =   3

     energy             old  =    -737.5460418633 Ry
     energy             new  =    -737.5475404454 Ry

     CASE: energy            _new < energy            _old

     new trust radius        =       0.0546215667 bohr
     new conv_thr            =       0.0000000001 Ry


ATOMIC_POSITIONS (angstrom)
Fe               1.9359767605        3.1804352811        4.0567379808
Fe               0.6453255868        1.0601450937        0.4142062681
Al               0.6453255868        3.1804352811        1.7901942709
Al               1.9359767605        1.0601450937        2.6807499780



     Writing config-only to output data dir ./FeAl.save/ :
     XML data file
     NEW-OLD atomic charge density approx. for the potential

     Check: negative core charge=   -0.000012

     total cpu time spent up to now is      300.0 secs

     Self-consistent Calculation

     iteration #  1     ecut=    70.00 Ry     beta= 0.70
     Davidson diagonalization with overlap
     ethr =  1.00E-06,  avg # of iterations = 11.8

     total cpu time spent up to now is      318.2 secs

     total energy              =    -737.54902940 Ry
     estimated scf accuracy    <       0.00048489 Ry

     iteration #  2     ecut=    70.00 Ry     beta= 0.70
     Davidson diagonalization with overlap
     ethr =  1.28E-06,  avg # of iterations =  4.1

     total cpu time spent up to now is      325.4 secs

     total energy              =    -737.54847473 Ry
     estimated scf accuracy    <       0.00655727 Ry

     iteration #  3     ecut=    70.00 Ry     beta= 0.70
     Davidson diagonalization with overlap
     ethr =  1.28E-06,  avg # of iterations =  3.9

     total cpu time spent up to now is      333.6 secs

     total energy              =    -737.54918016 Ry
     estimated scf accuracy    <       0.00020539 Ry

     iteration #  4     ecut=    70.00 Ry     beta= 0.70
     Davidson diagonalization with overlap
     ethr =  5.40E-07,  avg # of iterations =  1.6

     total cpu time spent up to now is      338.6 secs

     total energy              =    -737.54919952 Ry
     estimated scf accuracy    <       0.00000678 Ry

     iteration #  5     ecut=    70.00 Ry     beta= 0.70
     Davidson diagonalization with overlap
     ethr =  1.79E-08,  avg # of iterations =  5.0

     total cpu time spent up to now is      345.0 secs

     total energy              =    -737.54920300 Ry
     estimated scf accuracy    <       0.00000037 Ry

     iteration #  6     ecut=    70.00 Ry     beta= 0.70
     Davidson diagonalization with overlap
     ethr =  9.63E-10,  avg # of iterations =  5.6

     total cpu time spent up to now is      353.2 secs

     total energy              =    -737.54920328 Ry
     estimated scf accuracy    <       0.00000008 Ry

     iteration #  7     ecut=    70.00 Ry     beta= 0.70
     Davidson diagonalization with overlap
     ethr =  2.16E-10,  avg # of iterations =  2.9

     total cpu time spent up to now is      359.7 secs

     total energy              =    -737.54920329 Ry
     estimated scf accuracy    <          5.3E-09 Ry

     iteration #  8     ecut=    70.00 Ry     beta= 0.70
     Davidson diagonalization with overlap
     ethr =  1.40E-11,  avg # of iterations =  5.5

     total cpu time spent up to now is      368.5 secs

     total energy              =    -737.54920330 Ry
     estimated scf accuracy    <          1.3E-10 Ry

     iteration #  9     ecut=    70.00 Ry     beta= 0.70
     Davidson diagonalization with overlap
     ethr =  3.52E-13,  avg # of iterations =  6.8

     total cpu time spent up to now is      377.6 secs

     End of self-consistent calculation

          k = 0.0000 0.0000 0.0000 (  3263 PWs)   bands (ev):

   -72.9598 -72.9281 -39.1836 -39.0142 -38.9925 -38.9623 -38.8815 -38.8787
     2.8351   8.8466   9.8509  10.2526  10.5514  11.6320  12.0065  12.4839
    12.8018  12.9270  13.6034  13.6970  14.4410  14.4888  15.8709

          k = 0.0000 0.0000 0.1443 (  3295 PWs)   bands (ev):

   -72.9598 -72.9281 -39.1839 -39.0145 -38.9927 -38.9628 -38.8820 -38.8791
     3.2443   7.4416   9.7898   9.8037  11.2596  12.0392  12.3909  12.6430
    12.8040  12.9338  13.5684  13.7120  14.3687  14.4358  17.0074

          k = 0.0000 0.0000-0.2887 (  3282 PWs)   bands (ev):

   -72.9598 -72.9281 -39.1838 -39.0145 -38.9929 -38.9625 -38.8817 -38.8793
     3.9115   6.0775   9.5144  10.1667  11.7424  11.8921  12.1670  12.7832
    12.9406  13.5396  13.7211  13.7236  14.1888  14.4306  15.2308

          k = 0.0000 0.1522 0.0000 (  3253 PWs)   bands (ev):

   -72.9551 -72.9327 -39.1594 -39.0272 -39.0066 -38.9701 -38.8753 -38.8743
     3.3530   7.1027  10.1319  10.1991  10.9338  11.5203  12.3569  12.7617
    12.9833  13.0149  13.5694  13.7283  14.2737  14.3034  17.4145

          k = 0.0000 0.1522 0.1443 (  3272 PWs)   bands (ev):

   -72.9551 -72.9327 -39.1594 -39.0275 -39.0067 -38.9702 -38.8759 -38.8744
     3.7476   7.2882   8.1680  10.3306  11.4276  11.6098  12.2925  12.5732
    13.0111  13.2383  13.5676  13.7132  14.3113  14.4079  17.4455

          k = 0.0000 0.1522-0.2887 (  3280 PWs)   bands (ev):

   -72.9551 -72.9327 -39.1593 -39.0275 -39.0070 -38.9703 -38.8763 -38.8747
     4.3754   6.5953   7.8954   9.8105  11.6450  11.8783  12.2070  12.2347
    13.0072  13.5652  13.6850  13.6996  13.9403  14.3185  17.2368

          k = 0.0000-0.3044 0.0000 (  3298 PWs)   bands (ev):

   -72.9440 -72.9440 -39.0976 -39.0976 -38.9889 -38.9889 -38.8713 -38.8713
     4.8504   4.8504  10.3676  10.3676  11.3828  11.3828  12.4055  12.4055
    13.2711  13.2711  13.6489  13.6489  14.0117  14.0117  16.9092

          k = 0.0000-0.3044 0.1443 (  3264 PWs)   bands (ev):

   -72.9439 -72.9439 -39.0975 -39.0975 -38.9884 -38.9884 -38.8712 -38.8712
     5.2018   5.2018   9.2618   9.2618  11.5599  11.5599  12.1094  12.1094
    13.2575  13.2575  13.8700  13.8700  14.0215  14.0215  18.5733

          k = 0.0000-0.3044-0.2887 (  3260 PWs)   bands (ev):

   -72.9439 -72.9439 -39.0976 -39.0976 -38.9882 -38.9882 -38.8714 -38.8714
     5.7235   5.7235   8.1956   8.1956  11.6530  11.6530  11.9508  11.9508
    13.2442  13.2442  13.9865  13.9865  14.0309  14.0309  20.8606

          k = 0.1667 0.0000 0.0000 (  3287 PWs)   bands (ev):

   -72.9530 -72.9255 -39.1668 -39.0564 -39.0121 -39.0010 -38.8756 -38.8734
     3.4577   9.1933  10.2217  10.6090  11.0124  11.6477  11.9009  12.4331
    12.6174  12.8538  13.5139  14.0256  14.7616  14.7781  15.9538

          k = 0.1667 0.0000 0.1443 (  3282 PWs)   bands (ev):

   -72.9530 -72.9255 -39.1666 -39.0565 -39.0122 -39.0011 -38.8755 -38.8735
     3.8491   7.9600  10.1465  10.2752  11.5112  11.9072  12.2132  12.5851
    12.5860  12.9899  13.4577  13.5520  14.7322  14.8584  17.4178

          k = 0.1667 0.0000-0.2887 (  3286 PWs)   bands (ev):

   -72.9530 -72.9255 -39.1665 -39.0564 -39.0122 -39.0011 -38.8755 -38.8741
     4.4697   6.7118   9.8808  10.5561  11.8592  11.9677  12.2941  12.5405
    12.7466  13.3284  13.4868  13.5206  13.8589  15.3859  16.1174

          k = 0.1667 0.1522 0.0000 (  3279 PWs)   bands (ev):

   -72.9489 -72.9295 -39.1506 -39.0499 -39.0443 -38.9976 -38.8716 -38.8712
     3.9656   7.6336  10.4004  10.5515  11.2480  11.5059  12.3820  12.4721
    12.7428  12.8966  13.6944  13.7492  14.6862  14.8503  17.4921

          k = 0.1667 0.1522 0.1443 (  3266 PWs)   bands (ev):

   -72.9489 -72.9295 -39.1504 -39.0498 -39.0444 -38.9975 -38.8716 -38.8711
     4.3431   7.7829   8.7277  10.7418  11.4962  11.6802  12.2278  12.4515
    12.7094  13.1678  13.5116  13.7287  14.1512  15.1804  17.5812

          k = 0.1667 0.1522-0.2887 (  3282 PWs)   bands (ev):

   -72.9489 -72.9295 -39.1505 -39.0499 -39.0444 -38.9976 -38.8720 -38.8715
     4.9284   7.1915   8.4089  10.3206  11.8054  11.9048  11.9638  12.4450
    12.6642  13.2272  13.3973  13.7328  14.0208  14.8258  17.4650

          k = 0.1667-0.3044 0.0000 (  3258 PWs)   bands (ev):

   -72.9392 -72.9392 -39.1061 -39.1061 -39.0178 -39.0178 -38.8683 -38.8683
     5.4347   5.4347  10.7657  10.7657  11.5622  11.5622  12.0129  12.0129
    13.0958  13.0958  13.6317  13.6317  14.7894  14.7894  17.0746

          k = 0.1667-0.3044 0.1443 (  3264 PWs)   bands (ev):

   -72.9392 -72.9392 -39.1062 -39.1062 -39.0178 -39.0178 -38.8685 -38.8685
     5.7690   5.7690   9.7496   9.7496  11.7546  11.7546  11.9996  11.9996
    13.0044  13.0044  13.7993  13.7993  14.2030  14.2030  19.0537

          k = 0.1667-0.3044-0.2887 (  3252 PWs)   bands (ev):

   -72.9392 -72.9392 -39.1061 -39.1061 -39.0176 -39.0176 -38.8686 -38.8686
     6.2537   6.2537   8.7770   8.7770  11.8446  11.8446  11.9809  11.9809
    12.9154  12.9154  13.8251  13.8251  14.0742  14.0742  20.5562

          k = 0.3333 0.0000 0.0000 (  3275 PWs)   bands (ev):

   -72.9377 -72.9218 -39.1363 -39.1228 -39.1109 -39.0270 -38.8651 -38.8638
     5.2623   9.8558  10.5789  10.8813  11.1668  11.4596  12.1239  12.3466
    12.9368  12.9646  14.0323  14.8724  15.4506  15.4583  15.4720

          k = 0.3333 0.0000 0.1443 (  3268 PWs)   bands (ev):

   -72.9377 -72.9218 -39.1362 -39.1229 -39.1108 -39.0271 -38.8650 -38.8636
     5.5974   9.2323  10.7011  10.8658  11.1586  11.5201  11.9775  12.5081
    12.8664  13.1650  13.5238  14.0342  14.6877  15.6238  17.0413

          k = 0.3333 0.0000-0.2887 (  3256 PWs)   bands (ev):

   -72.9377 -72.9218 -39.1362 -39.1229 -39.1107 -39.0270 -38.8644 -38.8639
     6.0852   8.4322  10.6775  10.9675  11.1388  11.5173  12.3408  12.4843
    12.5894  13.2724  13.4247  13.8536  14.1230  15.9245  17.9774

          k = 0.3333 0.1522 0.0000 (  3279 PWs)   bands (ev):

   -72.9354 -72.9242 -39.1628 -39.1333 -39.0792 -39.0225 -38.8650 -38.8634
     5.7327   9.0052  10.5589  10.8411  11.3604  11.6677  11.9710  12.1611
    12.8314  13.1324  13.9493  14.1833  15.4086  15.6412  15.9373

          k = 0.3333 0.1522 0.1443 (  3263 PWs)   bands (ev):

   -72.9354 -72.9242 -39.1625 -39.1332 -39.0792 -39.0224 -38.8647 -38.8634
     6.0577   9.0719  10.0372  10.9057  11.2318  11.6011  12.0039  12.3725
    13.0156  13.0673  13.5483  13.9286  14.1771  15.3503  17.3015

          k = 0.3333 0.1522-0.2887 (  3246 PWs)   bands (ev):

   -72.9354 -72.9241 -39.1623 -39.1329 -39.0790 -39.0226 -38.8643 -38.8636
     6.5251   8.7157   9.8604  11.0776  11.2436  11.3739  12.2723  12.3611
    12.4145  12.9495  13.5065  13.8053  14.0031  15.8536  16.4401

          k = 0.3333-0.3044 0.0000 (  3240 PWs)   bands (ev):

   -72.9298 -72.9298 -39.1618 -39.1618 -39.0368 -39.0368 -38.8635 -38.8635
     7.0830   7.0830  11.1228  11.1228  11.4483  11.4483  12.0466  12.0466
    12.9159  12.9159  13.6407  13.6407  15.8087  15.8087  16.7289

          k = 0.3333-0.3044 0.1443 (  3270 PWs)   bands (ev):

   -72.9298 -72.9298 -39.1620 -39.1620 -39.0371 -39.0371 -38.8638 -38.8638
     7.3719   7.3719  10.5538  10.5538  11.6854  11.6854  12.1204  12.1204
    12.9241  12.9241  13.5172  13.5172  14.5244  14.5244  17.2351

          k = 0.3333-0.3044-0.2887 (  3264 PWs)   bands (ev):

   -72.9298 -72.9298 -39.1617 -39.1617 -39.0372 -39.0372 -38.8639 -38.8639
     7.7599   7.7599  10.0799  10.0799  11.6422  11.6422  12.3226  12.3226
    12.4436  12.4436  13.6230  13.6230  14.2700  14.2700  17.2704

          k =-0.5000 0.0000 0.0000 (  3236 PWs)   bands (ev):

   -72.9250 -72.9250 -39.1673 -39.1673 -39.0703 -39.0703 -38.8593 -38.8593
     8.0176   8.0176  10.3790  10.3790  11.2300  11.2300  12.8525  12.8525
    12.9303  12.9303  14.7795  14.7795  16.4789  16.4789  17.1391

          k =-0.5000 0.0000 0.1443 (  3244 PWs)   bands (ev):

   -72.9250 -72.9250 -39.1673 -39.1673 -39.0705 -39.0705 -38.8594 -38.8594
     8.2429   8.2429  10.4172  10.4172  11.1655  11.1655  12.7723  12.7723
    13.0113  13.0113  13.9819  13.9819  15.7121  15.7121  17.2444

          k =-0.5000 0.0000-0.2887 (  3196 PWs)   bands (ev):

   -72.9250 -72.9250 -39.1671 -39.1671 -39.0701 -39.0701 -38.8587 -38.8587
     8.4974   8.4974  10.5971  10.5971  11.1063  11.1063  12.1818  12.1818
    13.0868  13.0868  13.5282  13.5282  15.7052  15.7052  17.3644

          k =-0.5000 0.1522 0.0000 (  3244 PWs)   bands (ev):

   -72.9250 -72.9250 -39.1858 -39.1858 -39.0508 -39.0508 -38.8605 -38.8605
     8.3379   8.3379  10.6216  10.6216  11.2004  11.2004  12.2415  12.2415
    12.6689  12.6689  14.6550  14.6550  15.3445  15.3445  17.3017

          k =-0.5000 0.1522 0.1443 (  3254 PWs)   bands (ev):

   -72.9250 -72.9250 -39.1859 -39.1859 -39.0510 -39.0510 -38.8605 -38.8605
     8.5981   8.5981  10.3154  10.3154  11.5453  11.5453  12.1373  12.1373
    13.0150  13.0150  13.7793  13.7793  15.0181  15.0181  17.0109

          k =-0.5000 0.1522-0.2887 (  3236 PWs)   bands (ev):

   -72.9250 -72.9250 -39.1858 -39.1858 -39.0509 -39.0509 -38.8602 -38.8602
     8.8869   8.8869  10.2907  10.2907  11.7337  11.7337  11.8716  11.8716
    12.8009  12.8009  13.4542  13.4542  15.3403  15.3403  16.3189

          k =-0.5000-0.3044 0.0000 (  3248 PWs)   bands (ev):

   -72.9250 -72.9250 -39.2004 -39.2004 -39.0352 -39.0352 -38.8615 -38.8615
     8.8199   8.8199  10.7250  10.7250  11.0364  11.0364  11.6827  11.6827
    12.7690  12.7690  13.8818  13.8818  15.1129  15.1129  18.0593

          k =-0.5000-0.3044 0.1443 (  3244 PWs)   bands (ev):

   -72.9250 -72.9250 -39.2003 -39.2003 -39.0353 -39.0353 -38.8615 -38.8615
     9.2293   9.2293   9.9771   9.9771  11.5432  11.5432  12.0859  12.0859
    12.9224  12.9224  13.3309  13.3309  14.6282  14.6282  17.5102

          k =-0.5000-0.3044-0.2887 (  3264 PWs)   bands (ev):

   -72.9250 -72.9250 -39.2003 -39.2003 -39.0355 -39.0355 -38.8618 -38.8618
     9.6685   9.6685   9.9709   9.9709  11.0050  11.0050  12.4286  12.4286
    12.7043  12.7043  13.6840  13.6840  14.4708  14.4708  15.9584

     the Fermi energy is    13.6991 ev

!    total energy              =    -737.54920330 Ry
     total all-electron energy =     -6062.427838 Ry
     estimated scf accuracy    <          8.6E-12 Ry
     smearing contrib. (-TS)   =      -0.00015366 Ry
     internal energy E=F+TS    =    -737.54904964 Ry

     The total energy is F=E-TS. E is the sum of the following terms:
     one-electron contribution =    -358.05789040 Ry
     hartree contribution      =     199.44409242 Ry
     xc contribution           =     -75.75103580 Ry
     ewald contribution        =    -282.36736550 Ry
     one-center paw contrib.   =    -220.81685036 Ry

     convergence has been achieved in   9 iterations

     Forces acting on atoms (cartesian axes, Ry/au):

     atom    1 type  1   force =     0.00000000    0.00000000   -0.00784852
     atom    2 type  1   force =     0.00000000    0.00000000    0.00784852
     atom    3 type  2   force =     0.00000000    0.00000000   -0.00617896
     atom    4 type  2   force =     0.00000000    0.00000000    0.00617896

     Total force =     0.014126     Total SCF correction =     0.000009


     Computing stress (Cartesian axis) and pressure

          total   stress  (Ry/bohr**3)                   (kbar)     P=      -17.02
   0.00060331   0.00000000   0.00000000           88.75        0.00        0.00
   0.00000000  -0.00022693   0.00000000            0.00      -33.38        0.00
   0.00000000   0.00000000  -0.00072342            0.00        0.00     -106.42

     Energy error            =      1.7E-03 Ry
     Gradient error          =      7.8E-03 Ry/Bohr

     number of scf cycles    =   5
     number of bfgs steps    =   4

     energy             old  =    -737.5475404454 Ry
     energy             new  =    -737.5492032989 Ry

     CASE: energy            _new < energy            _old

     new trust radius        =       0.0778157534 bohr
     new conv_thr            =            7.8E-11 Ry


ATOMIC_POSITIONS (angstrom)
Fe               1.9359767605        3.1804352811        4.0267664252
Fe               0.6453255868        1.0601450937        0.4441778237
Al               0.6453255868        3.1804352811        1.7490159475
Al               1.9359767605        1.0601450937        2.7219283014



     Writing config-only to output data dir ./FeAl.save/ :
     XML data file
     NEW-OLD atomic charge density approx. for the potential

     Check: negative core charge=   -0.000012

     total cpu time spent up to now is      386.1 secs

     Self-consistent Calculation

     iteration #  1     ecut=    70.00 Ry     beta= 0.70
     Davidson diagonalization with overlap
     c_bands:  1 eigenvalues not converged
     ethr =  1.00E-06,  avg # of iterations = 13.5

     total cpu time spent up to now is      406.2 secs

     total energy              =    -737.54947054 Ry
     estimated scf accuracy    <       0.00085922 Ry

     iteration #  2     ecut=    70.00 Ry     beta= 0.70
     Davidson diagonalization with overlap
     ethr =  2.26E-06,  avg # of iterations =  4.1

     total cpu time spent up to now is      413.1 secs

     total energy              =    -737.54847885 Ry
     estimated scf accuracy    <       0.01193469 Ry

     iteration #  3     ecut=    70.00 Ry     beta= 0.70
     Davidson diagonalization with overlap
     ethr =  2.26E-06,  avg # of iterations =  4.0

     total cpu time spent up to now is      419.8 secs

     total energy              =    -737.54973161 Ry
     estimated scf accuracy    <       0.00018017 Ry

     iteration #  4     ecut=    70.00 Ry     beta= 0.70
     Davidson diagonalization with overlap
     ethr =  4.74E-07,  avg # of iterations =  1.9

     total cpu time spent up to now is      424.9 secs

     total energy              =    -737.54974684 Ry
     estimated scf accuracy    <       0.00000627 Ry

     iteration #  5     ecut=    70.00 Ry     beta= 0.70
     Davidson diagonalization with overlap
     ethr =  1.65E-08,  avg # of iterations =  5.9

     total cpu time spent up to now is      432.4 secs

     total energy              =    -737.54975207 Ry
     estimated scf accuracy    <       0.00000055 Ry

     iteration #  6     ecut=    70.00 Ry     beta= 0.70
     Davidson diagonalization with overlap
     ethr =  1.44E-09,  avg # of iterations =  4.8

     total cpu time spent up to now is      439.8 secs

     total energy              =    -737.54975233 Ry
     estimated scf accuracy    <       0.00000010 Ry

     iteration #  7     ecut=    70.00 Ry     beta= 0.70
     Davidson diagonalization with overlap
     ethr =  2.70E-10,  avg # of iterations =  4.1

     total cpu time spent up to now is      446.4 secs

     total energy              =    -737.54975236 Ry
     estimated scf accuracy    <       0.00000002 Ry

     iteration #  8     ecut=    70.00 Ry     beta= 0.70
     Davidson diagonalization with overlap
     ethr =  5.64E-11,  avg # of iterations =  3.9

     total cpu time spent up to now is      452.5 secs

     total energy              =    -737.54975237 Ry
     estimated scf accuracy    <          2.4E-10 Ry

     iteration #  9     ecut=    70.00 Ry     beta= 0.70
     Davidson diagonalization with overlap
     ethr =  6.30E-13,  avg # of iterations =  8.4

     total cpu time spent up to now is      463.6 secs

     total energy              =    -737.54975237 Ry
     estimated scf accuracy    <          1.2E-10 Ry

     iteration # 10     ecut=    70.00 Ry     beta= 0.70
     Davidson diagonalization with overlap
     ethr =  3.08E-13,  avg # of iterations =  2.3

     total cpu time spent up to now is      469.2 secs

     End of self-consistent calculation

          k = 0.0000 0.0000 0.0000 (  3263 PWs)   bands (ev):

   -72.9537 -72.9248 -39.1658 -39.0155 -38.9913 -38.9683 -38.8806 -38.8731
     2.8668   8.7516   9.8526  10.2875  10.5821  11.6990  12.1312  12.4159
    12.6892  12.9710  13.6185  13.6676  14.3858  14.4570  15.8704

          k = 0.0000 0.0000 0.1443 (  3295 PWs)   bands (ev):

   -72.9537 -72.9248 -39.1660 -39.0157 -38.9915 -38.9689 -38.8807 -38.8738
     3.2829   7.3924   9.7840   9.8389  11.2443  12.1508  12.3188  12.6332
    12.7414  12.9785  13.5801  13.6862  14.3798  14.4115  16.9883

          k = 0.0000 0.0000-0.2887 (  3282 PWs)   bands (ev):

   -72.9536 -72.9248 -39.1660 -39.0157 -38.9916 -38.9686 -38.8805 -38.8740
     3.9765   6.0142   9.5683  10.1425  11.6719  11.8983  12.2125  12.6675
    12.9860  13.5516  13.6951  13.8245  14.1391  14.3737  15.3873

          k = 0.0000 0.1522 0.0000 (  3253 PWs)   bands (ev):

   -72.9494 -72.9290 -39.1440 -39.0233 -39.0086 -38.9753 -38.8728 -38.8703
     3.3853   7.1131  10.1255  10.1836  10.9391  11.5805  12.3001  12.6289
    13.0412  13.0537  13.5436  13.7418  14.2037  14.2678  17.3982

          k = 0.0000 0.1522 0.1443 (  3272 PWs)   bands (ev):

   -72.9494 -72.9290 -39.1440 -39.0237 -39.0087 -38.9756 -38.8729 -38.8710
     3.7870   7.2813   8.1775  10.3327  11.4081  11.6439  12.2368  12.5268
    13.0364  13.1986  13.5419  13.7270  14.2766  14.4103  17.5043

          k = 0.0000 0.1522-0.2887 (  3280 PWs)   bands (ev):

   -72.9494 -72.9290 -39.1438 -39.0237 -39.0088 -38.9757 -38.8729 -38.8716
     4.4393   6.5313   7.9605   9.7798  11.6123  11.9518  12.1546  12.1575
    13.0316  13.5394  13.6034  13.7141  14.0100  14.2845  17.3862

          k = 0.0000-0.3044 0.0000 (  3298 PWs)   bands (ev):

   -72.9393 -72.9393 -39.0880 -39.0880 -38.9926 -38.9926 -38.8681 -38.8681
     4.8821   4.8821  10.3553  10.3553  11.4023  11.4023  12.3710  12.3710
    13.2650  13.2650  13.5482  13.5482  14.0088  14.0088  16.9988

          k = 0.0000-0.3044 0.1443 (  3264 PWs)   bands (ev):

   -72.9392 -72.9392 -39.0879 -39.0879 -38.9920 -38.9920 -38.8679 -38.8679
     5.2404   5.2404   9.2376   9.2376  11.5744  11.5744  12.0752  12.0752
    13.2501  13.2501  13.8115  13.8115  14.0203  14.0203  18.6406

          k = 0.0000-0.3044-0.2887 (  3260 PWs)   bands (ev):

   -72.9392 -72.9392 -39.0880 -39.0880 -38.9919 -38.9919 -38.8681 -38.8681
     5.7812   5.7812   8.1501   8.1501  11.6681  11.6681  11.9139  11.9139
    13.2356  13.2356  13.9507  13.9507  14.0314  14.0314  20.9808

          k = 0.1667 0.0000 0.0000 (  3287 PWs)   bands (ev):

   -72.9470 -72.9220 -39.1501 -39.0579 -39.0177 -38.9987 -38.8744 -38.8683
     3.4899   9.1041  10.2026  10.6362  11.0463  11.6938  11.9879  12.3371
    12.5861  12.9019  13.5286  14.0180  14.7387  14.7501  15.9566

          k = 0.1667 0.0000 0.1443 (  3282 PWs)   bands (ev):

   -72.9470 -72.9220 -39.1498 -39.0580 -39.0177 -38.9988 -38.8741 -38.8685
     3.8883   7.9049  10.1858  10.2491  11.5021  11.9705  12.1744  12.5681
    12.5684  13.0134  13.4608  13.5487  14.7568  14.8686  17.4032

          k = 0.1667 0.0000-0.2887 (  3286 PWs)   bands (ev):

   -72.9470 -72.9220 -39.1497 -39.0580 -39.0177 -38.9988 -38.8740 -38.8692
     4.5337   6.6445   9.9240  10.5233  11.9011  11.9185  12.2138  12.5469
    12.7946  13.3361  13.4642  13.4692  13.9522  15.5320  16.0368

          k = 0.1667 0.1522 0.0000 (  3279 PWs)   bands (ev):

   -72.9434 -72.9257 -39.1360 -39.0473 -39.0465 -39.0007 -38.8698 -38.8666
     3.9982   7.6404  10.4021  10.5264  11.2485  11.5525  12.3113  12.4688
    12.7481  12.8907  13.6639  13.7395  14.6340  14.8543  17.5048

          k = 0.1667 0.1522 0.1443 (  3266 PWs)   bands (ev):

   -72.9433 -72.9257 -39.1357 -39.0473 -39.0466 -39.0005 -38.8695 -38.8668
     4.3828   7.7710   8.7382  10.7332  11.4908  11.6804  12.2177  12.4381
    12.7226  13.1252  13.4830  13.7256  14.1551  15.1451  17.6574

          k = 0.1667 0.1522-0.2887 (  3282 PWs)   bands (ev):

   -72.9434 -72.9257 -39.1358 -39.0474 -39.0466 -39.0007 -38.8696 -38.8675
     4.9913   7.1243   8.4724  10.2798  11.7682  11.8767  12.0056  12.4279
    12.6875  13.1765  13.4313  13.6960  14.0517  14.7617  17.6077

          k = 0.1667-0.3044 0.0000 (  3258 PWs)   bands (ev):

   -72.9345 -72.9345 -39.0968 -39.0968 -39.0211 -39.0211 -38.8651 -38.8651
     5.4654   5.4654  10.7721  10.7721  11.5514  11.5514  12.0050  12.0050
    13.0798  13.0798  13.5562  13.5562  14.7610  14.7610  17.1524

          k = 0.1667-0.3044 0.1443 (  3264 PWs)   bands (ev):

   -72.9345 -72.9345 -39.0969 -39.0969 -39.0212 -39.0212 -38.8653 -38.8653
     5.8066   5.8066   9.7254   9.7254  11.7608  11.7608  11.9966  11.9966
    12.9770  12.9770  13.7548  13.7548  14.1961  14.1961  19.0922

          k = 0.1667-0.3044-0.2887 (  3252 PWs)   bands (ev):

   -72.9345 -72.9345 -39.0967 -39.0967 -39.0210 -39.0210 -38.8654 -38.8654
     6.3092   6.3092   8.7296   8.7296  11.8555  11.8555  11.9761  11.9761
    12.8835  12.8835  13.8543  13.8543  14.0150  14.0150  20.6132

          k = 0.3333 0.0000 0.0000 (  3275 PWs)   bands (ev):

   -72.9323 -72.9179 -39.1387 -39.1156 -39.1090 -39.0215 -38.8631 -38.8595
     5.2952   9.8035  10.5297  10.8869  11.1596  11.4696  12.1761  12.2910
    12.9704  13.0265  14.0012  14.8946  15.4147  15.4754  15.5444

          k = 0.3333 0.0000 0.1443 (  3268 PWs)   bands (ev):

   -72.9323 -72.9179 -39.1386 -39.1155 -39.1091 -39.0217 -38.8627 -38.8595
     5.6370   9.1675  10.6795  10.8697  11.1494  11.4903  12.0253  12.5222
    12.9209  13.1576  13.5077  13.9964  14.7377  15.7207  17.0641

          k = 0.3333 0.0000-0.2887 (  3256 PWs)   bands (ev):

   -72.9323 -72.9179 -39.1385 -39.1155 -39.1091 -39.0216 -38.8622 -38.8597
     6.1443   8.3533  10.6821  10.9856  11.1012  11.4733  12.3220  12.5524
    12.6437  13.2529  13.3908  13.8922  14.1511  16.0516  17.9787

          k = 0.3333 0.1522 0.0000 (  3279 PWs)   bands (ev):

   -72.9302 -72.9200 -39.1574 -39.1334 -39.0748 -39.0202 -38.8625 -38.8595
     5.7646   9.0002  10.5671  10.8132  11.3707  11.6489  11.9459  12.2343
    12.8310  13.1353  13.8827  14.1223  15.4534  15.6182  15.9748

          k = 0.3333 0.1522 0.1443 (  3263 PWs)   bands (ev):

   -72.9302 -72.9200 -39.1571 -39.1333 -39.0748 -39.0201 -38.8622 -38.8594
     6.0967   9.0458  10.0470  10.9059  11.2189  11.5785  11.9931  12.4424
    13.0063  13.0665  13.5263  13.8661  14.1983  15.3837  17.2848

          k = 0.3333 0.1522-0.2887 (  3246 PWs)   bands (ev):

   -72.9302 -72.9200 -39.1569 -39.1329 -39.0747 -39.0202 -38.8618 -38.8597
     6.5833   8.6470   9.9111  11.0442  11.2309  11.3360  12.3172  12.3484
    12.4788  12.9296  13.4956  13.8267  13.9632  15.7845  16.5570

          k = 0.3333-0.3044 0.0000 (  3240 PWs)   bands (ev):

   -72.9250 -72.9250 -39.1570 -39.1570 -39.0357 -39.0357 -38.8602 -38.8602
     7.1084   7.1084  11.1557  11.1557  11.4701  11.4701  12.0012  12.0012
    12.9049  12.9049  13.5534  13.5534  15.8223  15.8223  16.7609

          k = 0.3333-0.3044 0.1443 (  3270 PWs)   bands (ev):

   -72.9251 -72.9251 -39.1572 -39.1572 -39.0360 -39.0360 -38.8606 -38.8606
     7.4035   7.4035  10.5523  10.5523  11.6978  11.6978  12.0990  12.0990
    12.9145  12.9145  13.4641  13.4641  14.5320  14.5320  17.2859

          k = 0.3333-0.3044-0.2887 (  3264 PWs)   bands (ev):

   -72.9251 -72.9251 -39.1570 -39.1570 -39.0360 -39.0360 -38.8606 -38.8606
     7.8060   7.8060  10.0444  10.0444  11.6422  11.6422  12.3109  12.3109
    12.4622  12.4622  13.6183  13.6183  14.2178  14.2178  17.3637

          k =-0.5000 0.0000 0.0000 (  3236 PWs)   bands (ev):

   -72.9203 -72.9203 -39.1709 -39.1709 -39.0607 -39.0607 -38.8561 -38.8561
     8.0485   8.0485  10.3385  10.3385  11.2193  11.2193  12.8766  12.8766
    12.9106  12.9106  14.8042  14.8042  16.3887  16.3887  17.2905

          k =-0.5000 0.0000 0.1443 (  3244 PWs)   bands (ev):

   -72.9203 -72.9203 -39.1708 -39.1708 -39.0609 -39.0609 -38.8562 -38.8562
     8.2765   8.2765  10.3692  10.3692  11.1469  11.1469  12.8146  12.8146
    13.0108  13.0108  13.9599  13.9599  15.7253  15.7253  17.3766

          k =-0.5000 0.0000-0.2887 (  3196 PWs)   bands (ev):

   -72.9203 -72.9203 -39.1706 -39.1706 -39.0605 -39.0605 -38.8555 -38.8555
     8.5341   8.5341  10.5353  10.5353  11.0814  11.0814  12.2181  12.2181
    13.1043  13.1043  13.5269  13.5269  15.7327  15.7327  17.4754

          k =-0.5000 0.1522 0.0000 (  3244 PWs)   bands (ev):

   -72.9203 -72.9203 -39.1851 -39.1851 -39.0456 -39.0456 -38.8572 -38.8572
     8.3618   8.3618  10.6084  10.6084  11.1901  11.1901  12.2473  12.2473
    12.6843  12.6843  14.6162  14.6162  15.3665  15.3665  17.3018

          k =-0.5000 0.1522 0.1443 (  3254 PWs)   bands (ev):

   -72.9203 -72.9203 -39.1852 -39.1852 -39.0458 -39.0458 -38.8572 -38.8572
     8.6270   8.6270  10.2983  10.2983  11.5089  11.5089  12.1820  12.1820
    13.0129  13.0129  13.7575  13.7575  15.0397  15.0397  17.0464

          k =-0.5000 0.1522-0.2887 (  3236 PWs)   bands (ev):

   -72.9203 -72.9203 -39.1850 -39.1850 -39.0457 -39.0457 -38.8570 -38.8570
     8.9252   8.9252  10.2546  10.2546  11.6941  11.6941  11.9064  11.9064
    12.8355  12.8355  13.4217  13.4217  15.3556  15.3556  16.3938

          k =-0.5000-0.3044 0.0000 (  3248 PWs)   bands (ev):

   -72.9203 -72.9203 -39.1970 -39.1970 -39.0328 -39.0328 -38.8582 -38.8582
     8.8274   8.8274  10.7386  10.7386  11.0505  11.0505  11.7670  11.7670
    12.7091  12.7091  13.7747  13.7747  15.1374  15.1374  18.1053

          k =-0.5000-0.3044 0.1443 (  3244 PWs)   bands (ev):

   -72.9203 -72.9203 -39.1969 -39.1969 -39.0329 -39.0329 -38.8582 -38.8582
     9.2338   9.2338  10.0040  10.0040  11.6231  11.6231  12.0336  12.0336
    12.9089  12.9089  13.2744  13.2744  14.6336  14.6336  17.5794

          k =-0.5000-0.3044-0.2887 (  3264 PWs)   bands (ev):

   -72.9203 -72.9203 -39.1969 -39.1969 -39.0331 -39.0331 -38.8584 -38.8584
     9.6986   9.6986   9.9592   9.9592  11.0757  11.0757  12.3266  12.3266
    12.7132  12.7132  13.6943  13.6943  14.4444  14.4444  16.0482

     the Fermi energy is    13.6805 ev

!    total energy              =    -737.54975237 Ry
     total all-electron energy =     -6062.428387 Ry
     estimated scf accuracy    <          1.2E-11 Ry
     smearing contrib. (-TS)   =       0.00002475 Ry
     internal energy E=F+TS    =    -737.54977712 Ry

     The total energy is F=E-TS. E is the sum of the following terms:
     one-electron contribution =    -356.17532533 Ry
     hartree contribution      =     198.50843520 Ry
     xc contribution           =     -75.75900620 Ry
     ewald contribution        =    -283.30777244 Ry
     one-center paw contrib.   =    -220.81610834 Ry

     convergence has been achieved in  10 iterations

     Forces acting on atoms (cartesian axes, Ry/au):

     atom    1 type  1   force =     0.00000000    0.00000000    0.00234755
     atom    2 type  1   force =     0.00000000    0.00000000   -0.00234755
     atom    3 type  2   force =     0.00000000    0.00000000    0.00424412
     atom    4 type  2   force =     0.00000000    0.00000000   -0.00424412

     Total force =     0.006859     Total SCF correction =     0.000008


     Computing stress (Cartesian axis) and pressure

          total   stress  (Ry/bohr**3)                   (kbar)     P=      -15.15
   0.00049516   0.00000000   0.00000000           72.84        0.00        0.00
   0.00000000  -0.00020434   0.00000000            0.00      -30.06        0.00
   0.00000000   0.00000000  -0.00059982            0.00        0.00      -88.24

     Energy error            =      5.5E-04 Ry
     Gradient error          =      4.2E-03 Ry/Bohr

     number of scf cycles    =   6
     number of bfgs steps    =   5

     energy             old  =    -737.5492032989 Ry
     energy             new  =    -737.5497523661 Ry

     CASE: energy            _new < energy            _old

     new trust radius        =       0.0268267262 bohr
     new conv_thr            =            4.2E-11 Ry


ATOMIC_POSITIONS (angstrom)
Fe               1.9359767605        3.1804352811        4.0362954621
Fe               0.6453255868        1.0601450937        0.4346487868
Al               0.6453255868        3.1804352811        1.7632120397
Al               1.9359767605        1.0601450937        2.7077322092



     Writing config-only to output data dir ./FeAl.save/ :
     XML data file
     NEW-OLD atomic charge density approx. for the potential

     Check: negative core charge=   -0.000012

     total cpu time spent up to now is      477.2 secs

     Self-consistent Calculation

     iteration #  1     ecut=    70.00 Ry     beta= 0.70
     Davidson diagonalization with overlap
     ethr =  1.00E-06,  avg # of iterations =  8.9

     total cpu time spent up to now is      490.2 secs

     total energy              =    -737.54983832 Ry
     estimated scf accuracy    <       0.00010698 Ry

     iteration #  2     ecut=    70.00 Ry     beta= 0.70
     Davidson diagonalization with overlap
     ethr =  2.82E-07,  avg # of iterations =  5.0

     total cpu time spent up to now is      497.7 secs

     total energy              =    -737.54970714 Ry
     estimated scf accuracy    <       0.00181086 Ry

     iteration #  3     ecut=    70.00 Ry     beta= 0.70
     Davidson diagonalization with overlap
     ethr =  2.82E-07,  avg # of iterations =  4.0

     total cpu time spent up to now is      504.2 secs

     total energy              =    -737.54988923 Ry
     estimated scf accuracy    <       0.00001356 Ry

     iteration #  4     ecut=    70.00 Ry     beta= 0.70
     Davidson diagonalization with overlap
     ethr =  3.57E-08,  avg # of iterations =  2.1

     total cpu time spent up to now is      509.8 secs

     total energy              =    -737.54989063 Ry
     estimated scf accuracy    <       0.00000058 Ry

     iteration #  5     ecut=    70.00 Ry     beta= 0.70
     Davidson diagonalization with overlap
     ethr =  1.53E-09,  avg # of iterations =  6.2

     total cpu time spent up to now is      517.8 secs

     total energy              =    -737.54989112 Ry
     estimated scf accuracy    <       0.00000003 Ry

     iteration #  6     ecut=    70.00 Ry     beta= 0.70
     Davidson diagonalization with overlap
     ethr =  8.73E-11,  avg # of iterations =  4.7

     total cpu time spent up to now is      525.0 secs

     total energy              =    -737.54989114 Ry
     estimated scf accuracy    <          4.0E-09 Ry

     iteration #  7     ecut=    70.00 Ry     beta= 0.70
     Davidson diagonalization with overlap
     ethr =  1.06E-11,  avg # of iterations =  4.8

     total cpu time spent up to now is      532.4 secs

     total energy              =    -737.54989114 Ry
     estimated scf accuracy    <          6.9E-10 Ry

     iteration #  8     ecut=    70.00 Ry     beta= 0.70
     Davidson diagonalization with overlap
     ethr =  1.82E-12,  avg # of iterations =  3.9

     total cpu time spent up to now is      538.8 secs

     End of self-consistent calculation

          k = 0.0000 0.0000 0.0000 (  3263 PWs)   bands (ev):

   -72.9561 -72.9264 -39.1701 -39.0170 -38.9904 -38.9683 -38.8817 -38.8756
     2.8556   8.7840   9.8531  10.2744  10.5711  11.6787  12.0873  12.4371
    12.7260  12.9574  13.6125  13.6755  14.4033  14.4691  15.8704

          k = 0.0000 0.0000 0.1443 (  3295 PWs)   bands (ev):

   -72.9561 -72.9264 -39.1703 -39.0172 -38.9906 -38.9688 -38.8819 -38.8763
     3.2692   7.4098   9.7911   9.8218  11.2483  12.1129  12.3409  12.6468
    12.7527  12.9647  13.5753  13.6928  14.3976  14.3982  16.9951

          k = 0.0000 0.0000-0.2887 (  3282 PWs)   bands (ev):

   -72.9561 -72.9264 -39.1703 -39.0172 -38.9907 -38.9686 -38.8817 -38.8764
     3.9532   6.0370   9.5497  10.1518  11.6928  11.8973  12.1939  12.7052
    12.9720  13.5465  13.7019  13.7929  14.1571  14.3917  15.3361

          k = 0.0000 0.1522 0.0000 (  3253 PWs)   bands (ev):

   -72.9518 -72.9307 -39.1475 -39.0233 -39.0098 -38.9755 -38.8740 -38.8726
     3.3739   7.1093  10.1285  10.1884  10.9375  11.5619  12.3183  12.6717
    13.0288  13.0329  13.5505  13.7366  14.2277  14.2790  17.4045

          k = 0.0000 0.1522 0.1443 (  3272 PWs)   bands (ev):

   -72.9518 -72.9307 -39.1476 -39.0237 -39.0099 -38.9758 -38.8742 -38.8732
     3.7730   7.2841   8.1737  10.3328  11.4150  11.6328  12.2544  12.5430
    13.0285  13.2098  13.5488  13.7217  14.2875  14.4114  17.4882

          k = 0.0000 0.1522-0.2887 (  3280 PWs)   bands (ev):

   -72.9518 -72.9307 -39.1474 -39.0237 -39.0101 -38.9759 -38.8742 -38.8739
     4.4164   6.5543   7.9373   9.7912  11.6216  11.9271  12.1730  12.1821
    13.0239  13.5464  13.6303  13.7086  13.9902  14.2951  17.3355

          k = 0.0000-0.3044 0.0000 (  3298 PWs)   bands (ev):

   -72.9413 -72.9413 -39.0898 -39.0898 -38.9933 -38.9933 -38.8698 -38.8698
     4.8709   4.8709  10.3595  10.3595  11.3967  11.3967  12.3833  12.3833
    13.2663  13.2663  13.5799  13.5799  14.0093  14.0093  16.9708

          k = 0.0000-0.3044 0.1443 (  3264 PWs)   bands (ev):

   -72.9413 -72.9413 -39.0897 -39.0897 -38.9928 -38.9928 -38.8696 -38.8696
     5.2267   5.2267   9.2464   9.2464  11.5694  11.5694  12.0865  12.0865
    13.2518  13.2518  13.8320  13.8320  14.0202  14.0202  18.6188

          k = 0.0000-0.3044-0.2887 (  3260 PWs)   bands (ev):

   -72.9412 -72.9412 -39.0898 -39.0898 -38.9926 -38.9926 -38.8698 -38.8698
     5.7606   5.7606   8.1665   8.1665  11.6621  11.6621  11.9264  11.9264
    13.2377  13.2377  13.9647  13.9647  14.0308  14.0308  20.9412

          k = 0.1667 0.0000 0.0000 (  3287 PWs)   bands (ev):

   -72.9494 -72.9237 -39.1540 -39.0593 -39.0178 -38.9981 -38.8756 -38.8707
     3.4785   9.1345  10.2099  10.6260  11.0348  11.6799  11.9569  12.3680
    12.5949  12.8875  13.5238  14.0179  14.7529  14.7541  15.9554

          k = 0.1667 0.0000 0.1443 (  3282 PWs)   bands (ev):

   -72.9494 -72.9237 -39.1538 -39.0594 -39.0178 -38.9982 -38.8754 -38.8709
     3.8744   7.9243  10.1721  10.2585  11.5044  11.9485  12.1897  12.5717
    12.5729  13.0061  13.4592  13.5493  14.7481  14.8656  17.4083

          k = 0.1667 0.0000-0.2887 (  3286 PWs)   bands (ev):

   -72.9494 -72.9237 -39.1537 -39.0594 -39.0178 -38.9982 -38.8753 -38.8715
     4.5107   6.6686   9.9090  10.5354  11.8862  11.9327  12.2404  12.5433
    12.7798  13.3326  13.4702  13.4859  13.9226  15.4839  16.0642

          k = 0.1667 0.1522 0.0000 (  3279 PWs)   bands (ev):

   -72.9457 -72.9274 -39.1394 -39.0482 -39.0475 -39.0002 -38.8711 -38.8688
     3.9867   7.6379  10.4015  10.5357  11.2483  11.5379  12.3358  12.4710
    12.7447  12.8898  13.6723  13.7437  14.6511  14.8522  17.5009

          k = 0.1667 0.1522 0.1443 (  3266 PWs)   bands (ev):

   -72.9456 -72.9274 -39.1392 -39.0482 -39.0476 -39.0001 -38.8709 -38.8689
     4.3687   7.7755   8.7341  10.7369  11.4938  11.6799  12.2207  12.4433
    12.7168  13.1374  13.4917  13.7267  14.1550  15.1566  17.6328

          k = 0.1667 0.1522-0.2887 (  3282 PWs)   bands (ev):

   -72.9456 -72.9274 -39.1393 -39.0483 -39.0476 -39.0003 -38.8709 -38.8697
     4.9687   7.1483   8.4498  10.2945  11.7820  11.8841  11.9917  12.4338
    12.6786  13.1916  13.4205  13.7084  14.0435  14.7825  17.5590

          k = 0.1667-0.3044 0.0000 (  3258 PWs)   bands (ev):

   -72.9365 -72.9365 -39.0991 -39.0991 -39.0213 -39.0213 -38.8668 -38.8668
     5.4545   5.4545  10.7709  10.7709  11.5552  11.5552  12.0083  12.0083
    13.0837  13.0837  13.5811  13.5811  14.7693  14.7693  17.1278

          k = 0.1667-0.3044 0.1443 (  3264 PWs)   bands (ev):

   -72.9365 -72.9365 -39.0991 -39.0991 -39.0214 -39.0214 -38.8670 -38.8670
     5.7932   5.7932   9.7343   9.7343  11.7589  11.7589  11.9978  11.9978
    12.9845  12.9845  13.7709  13.7709  14.1977  14.1977  19.0794

          k = 0.1667-0.3044-0.2887 (  3252 PWs)   bands (ev):

   -72.9365 -72.9365 -39.0990 -39.0990 -39.0212 -39.0212 -38.8671 -38.8671
     6.2894   6.2894   8.7466   8.7466  11.8526  11.8526  11.9771  11.9771
    12.8924  12.8924  13.8465  13.8465  14.0343  14.0343  20.5934

          k = 0.3333 0.0000 0.0000 (  3275 PWs)   bands (ev):

   -72.9345 -72.9197 -39.1398 -39.1160 -39.1120 -39.0219 -38.8646 -38.8616
     5.2835   9.8211  10.5459  10.8850  11.1622  11.4667  12.1583  12.3076
    12.9611  13.0060  14.0115  14.8835  15.4344  15.4663  15.5166

          k = 0.3333 0.0000 0.1443 (  3268 PWs)   bands (ev):

   -72.9345 -72.9197 -39.1397 -39.1159 -39.1122 -39.0221 -38.8642 -38.8616
     5.6229   9.1899  10.6860  10.8681  11.1526  11.5005  12.0086  12.5182
    12.9023  13.1604  13.5124  14.0093  14.7191  15.6890  17.0569

          k = 0.3333 0.0000-0.2887 (  3256 PWs)   bands (ev):

   -72.9345 -72.9196 -39.1396 -39.1159 -39.1121 -39.0220 -38.8637 -38.8618
     6.1230   8.3813  10.6801  10.9781  11.1142  11.4880  12.3277  12.5279
    12.6272  13.2586  13.4024  13.8847  14.1369  16.0086  17.9780

          k = 0.3333 0.1522 0.0000 (  3279 PWs)   bands (ev):

   -72.9324 -72.9218 -39.1598 -39.1347 -39.0760 -39.0202 -38.8641 -38.8615
     5.7532   9.0018  10.5648  10.8231  11.3661  11.6547  11.9550  12.2119
    12.8301  13.1335  13.9051  14.1414  15.4368  15.6258  15.9623

          k = 0.3333 0.1522 0.1443 (  3263 PWs)   bands (ev):

   -72.9324 -72.9218 -39.1595 -39.1346 -39.0760 -39.0201 -38.8638 -38.8614
     6.0828   9.0550  10.0437  10.9051  11.2243  11.5859  11.9963  12.4204
    13.0087  13.0645  13.5342  13.8873  14.1905  15.3725  17.2904

          k = 0.3333 0.1522-0.2887 (  3246 PWs)   bands (ev):

   -72.9323 -72.9218 -39.1593 -39.1342 -39.0759 -39.0202 -38.8634 -38.8617
     6.5624   8.6714   9.8933  11.0568  11.2340  11.3484  12.3023  12.3523
    12.4574  12.9347  13.5001  13.8220  13.9744  15.8074  16.5179

          k = 0.3333-0.3044 0.0000 (  3240 PWs)   bands (ev):

   -72.9271 -72.9271 -39.1594 -39.1594 -39.0357 -39.0357 -38.8620 -38.8620
     7.0993   7.0993  11.1453  11.1453  11.4643  11.4643  12.0164  12.0164
    12.9067  12.9067  13.5818  13.5818  15.8161  15.8161  16.7504

          k = 0.3333-0.3044 0.1443 (  3270 PWs)   bands (ev):

   -72.9271 -72.9271 -39.1596 -39.1596 -39.0360 -39.0360 -38.8624 -38.8624
     7.3922   7.3922  10.5535  10.5535  11.6961  11.6961  12.1049  12.1049
    12.9154  12.9154  13.4826  13.4826  14.5286  14.5286  17.2688

          k = 0.3333-0.3044-0.2887 (  3264 PWs)   bands (ev):

   -72.9271 -72.9271 -39.1593 -39.1593 -39.0361 -39.0361 -38.8624 -38.8624
     7.7896   7.7896  10.0572  10.0572  11.6431  11.6431  12.3152  12.3152
    12.4540  12.4540  13.6208  13.6208  14.2336  14.2336  17.3323

          k =-0.5000 0.0000 0.0000 (  3236 PWs)   bands (ev):

   -72.9223 -72.9223 -39.1716 -39.1716 -39.0624 -39.0624 -38.8579 -38.8579
     8.0374   8.0374  10.3519  10.3519  11.2231  11.2231  12.8695  12.8695
    12.9174  12.9174  14.7952  14.7952  16.4166  16.4166  17.2400

          k =-0.5000 0.0000 0.1443 (  3244 PWs)   bands (ev):

   -72.9224 -72.9224 -39.1715 -39.1715 -39.0626 -39.0626 -38.8580 -38.8580
     8.2643   8.2643  10.3854  10.3854  11.1531  11.1531  12.8010  12.8010
    13.0118  13.0118  13.9669  13.9669  15.7198  15.7198  17.3318

          k =-0.5000 0.0000-0.2887 (  3196 PWs)   bands (ev):

   -72.9223 -72.9223 -39.1713 -39.1713 -39.0622 -39.0622 -38.8573 -38.8573
     8.5206   8.5206  10.5569  10.5569  11.0895  11.0895  12.2047  12.2047
    13.0999  13.0999  13.5285  13.5285  15.7223  15.7223  17.4370

          k =-0.5000 0.1522 0.0000 (  3244 PWs)   bands (ev):

   -72.9223 -72.9223 -39.1867 -39.1867 -39.0464 -39.0464 -38.8590 -38.8590
     8.3532   8.3532  10.6134  10.6134  11.1935  11.1935  12.2460  12.2460
    12.6785  12.6785  14.6291  14.6291  15.3572  15.3572  17.3025

          k =-0.5000 0.1522 0.1443 (  3254 PWs)   bands (ev):

   -72.9224 -72.9224 -39.1868 -39.1868 -39.0465 -39.0465 -38.8591 -38.8591
     8.6166   8.6166  10.3044  10.3044  11.5214  11.5214  12.1672  12.1672
    13.0134  13.0134  13.7644  13.7644  15.0318  15.0318  17.0350

          k =-0.5000 0.1522-0.2887 (  3236 PWs)   bands (ev):

   -72.9223 -72.9223 -39.1866 -39.1866 -39.0465 -39.0465 -38.8588 -38.8588
     8.9112   8.9112  10.2676  10.2676  11.7108  11.7108  11.8895  11.8895
    12.8263  12.8263  13.4319  13.4319  15.3494  15.3494  16.3689

          k =-0.5000-0.3044 0.0000 (  3248 PWs)   bands (ev):

   -72.9223 -72.9223 -39.1993 -39.1993 -39.0329 -39.0329 -38.8601 -38.8601
     8.8246   8.8246  10.7330  10.7330  11.0462  11.0462  11.7406  11.7406
    12.7281  12.7281  13.8093  13.8093  15.1276  15.1276  18.0916

          k =-0.5000-0.3044 0.1443 (  3244 PWs)   bands (ev):

   -72.9223 -72.9223 -39.1991 -39.1991 -39.0330 -39.0330 -38.8600 -38.8600
     9.2321   9.2321   9.9944   9.9944  11.5974  11.5974  12.0516  12.0516
    12.9119  12.9119  13.2933  13.2933  14.6306  14.6306  17.5569

          k =-0.5000-0.3044-0.2887 (  3264 PWs)   bands (ev):

   -72.9224 -72.9224 -39.1991 -39.1991 -39.0332 -39.0332 -38.8603 -38.8603
     9.6879   9.6879   9.9633   9.9633  11.0514  11.0514  12.3602  12.3602
    12.7119  12.7119  13.6901  13.6901  14.4521  14.4521  16.0189

     the Fermi energy is    13.6845 ev

!    total energy              =    -737.54989114 Ry
     total all-electron energy =     -6062.428526 Ry
     estimated scf accuracy    <          2.2E-11 Ry
     smearing contrib. (-TS)   =       0.00005757 Ry
     internal energy E=F+TS    =    -737.54994872 Ry

     The total energy is F=E-TS. E is the sum of the following terms:
     one-electron contribution =    -356.75269915 Ry
     hartree contribution      =     198.79456027 Ry
     xc contribution           =     -75.75600515 Ry
     ewald contribution        =    -283.01950411 Ry
     one-center paw contrib.   =    -220.81630058 Ry

     convergence has been achieved in   8 iterations

     Forces acting on atoms (cartesian axes, Ry/au):

     atom    1 type  1   force =     0.00000000    0.00000000   -0.00144270
     atom    2 type  1   force =     0.00000000    0.00000000    0.00144270
     atom    3 type  2   force =     0.00000000    0.00000000    0.00037838
     atom    4 type  2   force =     0.00000000    0.00000000   -0.00037838

     Total force =     0.002109     Total SCF correction =     0.000014


     Computing stress (Cartesian axis) and pressure

          total   stress  (Ry/bohr**3)                   (kbar)     P=      -16.21
   0.00052582   0.00000000   0.00000000           77.35        0.00        0.00
   0.00000000  -0.00021803   0.00000000            0.00      -32.07        0.00
   0.00000000   0.00000000  -0.00063839            0.00        0.00      -93.91

     Energy error            =      1.4E-04 Ry
     Gradient error          =      1.4E-03 Ry/Bohr

     number of scf cycles    =   7
     number of bfgs steps    =   6

     energy             old  =    -737.5497523661 Ry
     energy             new  =    -737.5498911433 Ry

     CASE: energy            _new < energy            _old

     new trust radius        =       0.0025568162 bohr
     new conv_thr            =            1.4E-11 Ry


ATOMIC_POSITIONS (angstrom)
Fe               1.9359767605        3.1804352811        4.0349424532
Fe               0.6453255868        1.0601450937        0.4360017957
Al               0.6453255868        3.1804352811        1.7623718889
Al               1.9359767605        1.0601450937        2.7085723600



     Writing config-only to output data dir ./FeAl.save/ :
     XML data file
     NEW-OLD atomic charge density approx. for the potential

     Check: negative core charge=   -0.000012

     total cpu time spent up to now is      546.1 secs

     Self-consistent Calculation

     iteration #  1     ecut=    70.00 Ry     beta= 0.70
     Davidson diagonalization with overlap
     ethr =  1.00E-06,  avg # of iterations =  4.9

     Threshold (ethr) on eigenvalues was too large:
     Diagonalizing with lowered threshold

     Davidson diagonalization with overlap
     ethr =  8.07E-09,  avg # of iterations =  6.3

     total cpu time spent up to now is      562.3 secs

     total energy              =    -737.54989518 Ry
     estimated scf accuracy    <       0.00000178 Ry

     iteration #  2     ecut=    70.00 Ry     beta= 0.70
     Davidson diagonalization with overlap
     ethr =  4.69E-09,  avg # of iterations =  2.8

     total cpu time spent up to now is      568.3 secs

     total energy              =    -737.54989529 Ry
     estimated scf accuracy    <       0.00000058 Ry

     iteration #  3     ecut=    70.00 Ry     beta= 0.70
     Davidson diagonalization with overlap
     ethr =  1.53E-09,  avg # of iterations =  3.9

     total cpu time spent up to now is      573.5 secs

     total energy              =    -737.54989518 Ry
     estimated scf accuracy    <       0.00000290 Ry

     iteration #  4     ecut=    70.00 Ry     beta= 0.70
     Davidson diagonalization with overlap
     ethr =  1.53E-09,  avg # of iterations =  3.3

     total cpu time spent up to now is      579.4 secs

     total energy              =    -737.54989549 Ry
     estimated scf accuracy    <       0.00000005 Ry

     iteration #  5     ecut=    70.00 Ry     beta= 0.70
     Davidson diagonalization with overlap
     ethr =  1.21E-10,  avg # of iterations =  3.9

     total cpu time spent up to now is      585.3 secs

     total energy              =    -737.54989550 Ry
     estimated scf accuracy    <          3.5E-09 Ry

     iteration #  6     ecut=    70.00 Ry     beta= 0.70
     Davidson diagonalization with overlap
     ethr =  9.08E-12,  avg # of iterations =  5.2

     total cpu time spent up to now is      592.5 secs

     total energy              =    -737.54989550 Ry
     estimated scf accuracy    <          3.5E-10 Ry

     iteration #  7     ecut=    70.00 Ry     beta= 0.70
     Davidson diagonalization with overlap
     ethr =  9.27E-13,  avg # of iterations =  4.7

     total cpu time spent up to now is      598.9 secs

     total energy              =    -737.54989550 Ry
     estimated scf accuracy    <          2.9E-11 Ry

     iteration #  8     ecut=    70.00 Ry     beta= 0.70
     Davidson diagonalization with overlap
     ethr =  1.00E-13,  avg # of iterations =  4.4

     total cpu time spent up to now is      604.7 secs

     End of self-consistent calculation

          k = 0.0000 0.0000 0.0000 (  3263 PWs)   bands (ev):

   -72.9561 -72.9265 -39.1696 -39.0171 -38.9906 -38.9686 -38.8821 -38.8758
     2.8561   8.7816   9.8542  10.2741  10.5715  11.6822  12.0909  12.4340
    12.7215  12.9596  13.6132  13.6741  14.4008  14.4686  15.8701

          k = 0.0000 0.0000 0.1443 (  3295 PWs)   bands (ev):

   -72.9562 -72.9266 -39.1699 -39.0173 -38.9909 -38.9691 -38.8823 -38.8764
     3.2698   7.4089   9.7907   9.8225  11.2478  12.1162  12.3376  12.6453
    12.7517  12.9669  13.5758  13.6916  14.3950  14.4005  16.9942

          k = 0.0000 0.0000-0.2887 (  3282 PWs)   bands (ev):

   -72.9561 -72.9266 -39.1698 -39.0173 -38.9910 -38.9689 -38.8820 -38.8766
     3.9542   6.0360   9.5508  10.1518  11.6900  11.8954  12.1958  12.7004
    12.9742  13.5470  13.7007  13.7976  14.1563  14.3891  15.3415

          k = 0.0000 0.1522 0.0000 (  3253 PWs)   bands (ev):

   -72.9518 -72.9309 -39.1472 -39.0235 -39.0100 -38.9758 -38.8743 -38.8728
     3.3744   7.1093  10.1291  10.1876  10.9381  11.5652  12.3157  12.6659
    13.0306  13.0343  13.5494  13.7371  14.2254  14.2772  17.4042

          k = 0.0000 0.1522 0.1443 (  3272 PWs)   bands (ev):

   -72.9518 -72.9309 -39.1472 -39.0238 -39.0101 -38.9761 -38.8745 -38.8734
     3.7737   7.2839   8.1738  10.3333  11.4144  11.6345  12.2520  12.5412
    13.0298  13.2076  13.5477  13.7222  14.2858  14.4119  17.4893

          k = 0.0000 0.1522-0.2887 (  3280 PWs)   bands (ev):

   -72.9518 -72.9309 -39.1470 -39.0239 -39.0102 -38.9761 -38.8745 -38.8741
     4.4173   6.5534   7.9383   9.7910  11.6202  11.9297  12.1709  12.1798
    13.0251  13.5453  13.6266  13.7091  13.9934  14.2935  17.3396

          k = 0.0000-0.3044 0.0000 (  3298 PWs)   bands (ev):

   -72.9414 -72.9414 -39.0897 -39.0897 -38.9935 -38.9935 -38.8701 -38.8701
     4.8714   4.8714  10.3593  10.3593  11.3984  11.3984  12.3818  12.3818
    13.2662  13.2662  13.5755  13.5755  14.0090  14.0090  16.9741

          k = 0.0000-0.3044 0.1443 (  3264 PWs)   bands (ev):

   -72.9413 -72.9413 -39.0896 -39.0896 -38.9930 -38.9930 -38.8699 -38.8699
     5.2273   5.2273   9.2461   9.2461  11.5704  11.5704  12.0852  12.0852
    13.2516  13.2516  13.8293  13.8293  14.0200  14.0200  18.6213

          k = 0.0000-0.3044-0.2887 (  3260 PWs)   bands (ev):

   -72.9413 -72.9413 -39.0897 -39.0897 -38.9928 -38.9928 -38.8701 -38.8701
     5.7615   5.7615   8.1658   8.1658  11.6627  11.6627  11.9253  11.9253
    13.2375  13.2375  13.9630  13.9630  14.0306  14.0306  20.9452

          k = 0.1667 0.0000 0.0000 (  3287 PWs)   bands (ev):

   -72.9495 -72.9238 -39.1536 -39.0594 -39.0181 -38.9983 -38.8759 -38.8708
     3.4790   9.1323  10.2101  10.6256  11.0355  11.6823  11.9592  12.3639
    12.5931  12.8899  13.5245  14.0169  14.7522  14.7532  15.9551

          k = 0.1667 0.0000 0.1443 (  3282 PWs)   bands (ev):

   -72.9495 -72.9238 -39.1534 -39.0595 -39.0181 -38.9985 -38.8757 -38.8711
     3.8750   7.9233  10.1726  10.2580  11.5041  11.9499  12.1886  12.5706
    12.5719  13.0074  13.4593  13.5491  14.7489  14.8655  17.4080

          k = 0.1667 0.0000-0.2887 (  3286 PWs)   bands (ev):

   -72.9495 -72.9238 -39.1533 -39.0595 -39.0181 -38.9985 -38.8756 -38.8717
     4.5117   6.6676   9.9098  10.5351  11.8865  11.9308  12.2376  12.5434
    12.7822  13.3324  13.4691  13.4836  13.9267  15.4886  16.0618

          k = 0.1667 0.1522 0.0000 (  3279 PWs)   bands (ev):

   -72.9457 -72.9276 -39.1391 -39.0483 -39.0476 -39.0005 -38.8715 -38.8690
     3.9872   7.6377  10.4016  10.5356  11.2486  11.5402  12.3326  12.4711
    12.7450  12.8887  13.6709  13.7431  14.6498  14.8517  17.5008

          k = 0.1667 0.1522 0.1443 (  3266 PWs)   bands (ev):

   -72.9457 -72.9276 -39.1389 -39.0483 -39.0477 -39.0004 -38.8712 -38.8691
     4.3693   7.7751   8.7342  10.7372  11.4940  11.6801  12.2201  12.4428
    12.7175  13.1352  13.4905  13.7264  14.1553  15.1551  17.6346

          k = 0.1667 0.1522-0.2887 (  3282 PWs)   bands (ev):

   -72.9457 -72.9276 -39.1389 -39.0484 -39.0478 -39.0006 -38.8712 -38.8699
     4.9697   7.1473   8.4507  10.2939  11.7814  11.8829  11.9929  12.4330
    12.6796  13.1891  13.4219  13.7069  14.0449  14.7799  17.5626

          k = 0.1667-0.3044 0.0000 (  3258 PWs)   bands (ev):

   -72.9366 -72.9366 -39.0989 -39.0989 -39.0216 -39.0216 -38.8671 -38.8671
     5.4550   5.4550  10.7714  10.7714  11.5556  11.5556  12.0080  12.0080
    13.0830  13.0830  13.5777  13.5777  14.7680  14.7680  17.1306

          k = 0.1667-0.3044 0.1443 (  3264 PWs)   bands (ev):

   -72.9366 -72.9366 -39.0990 -39.0990 -39.0217 -39.0217 -38.8673 -38.8673
     5.7938   5.7938   9.7340   9.7340  11.7596  11.7596  11.9978  11.9978
    12.9832  12.9832  13.7689  13.7689  14.1973  14.1973  19.0808

          k = 0.1667-0.3044-0.2887 (  3252 PWs)   bands (ev):

   -72.9366 -72.9366 -39.0989 -39.0989 -39.0215 -39.0215 -38.8674 -38.8674
     6.2903   6.2903   8.7458   8.7458  11.8531  11.8531  11.9772  11.9772
    12.8909  12.8909  13.8478  13.8478  14.0316  14.0316  20.5942

          k = 0.3333 0.0000 0.0000 (  3275 PWs)   bands (ev):

   -72.9346 -72.9198 -39.1400 -39.1162 -39.1117 -39.0220 -38.8649 -38.8618
     5.2840   9.8200  10.5449  10.8853  11.1619  11.4674  12.1587  12.3042
    12.9629  13.0078  14.0102  14.8826  15.4334  15.4672  15.5192

          k = 0.3333 0.0000 0.1443 (  3268 PWs)   bands (ev):

   -72.9346 -72.9198 -39.1399 -39.1162 -39.1119 -39.0222 -38.8645 -38.8618
     5.6235   9.1888  10.6852  10.8678  11.1528  11.4997  12.0092  12.5184
    12.9036  13.1601  13.5117  14.0078  14.7202  15.6917  17.0580

          k = 0.3333 0.0000-0.2887 (  3256 PWs)   bands (ev):

   -72.9346 -72.9198 -39.1397 -39.1161 -39.1118 -39.0221 -38.8640 -38.8621
     6.1239   8.3799  10.6797  10.9783  11.1137  11.4866  12.3271  12.5286
    12.6297  13.2575  13.4008  13.8861  14.1379  16.0119  17.9785

          k = 0.3333 0.1522 0.0000 (  3279 PWs)   bands (ev):

   -72.9324 -72.9219 -39.1597 -39.1348 -39.0761 -39.0203 -38.8644 -38.8617
     5.7537   9.0013  10.5658  10.8227  11.3658  11.6543  11.9539  12.2154
    12.8294  13.1329  13.9023  14.1385  15.4375  15.6257  15.9633

          k = 0.3333 0.1522 0.1443 (  3263 PWs)   bands (ev):

   -72.9324 -72.9219 -39.1594 -39.1347 -39.0760 -39.0203 -38.8641 -38.8617
     6.0834   9.0543  10.0439  10.9049  11.2245  11.5854  11.9960  12.4231
    13.0074  13.0640  13.5335  13.8846  14.1914  15.3732  17.2900

          k = 0.3333 0.1522-0.2887 (  3246 PWs)   bands (ev):

   -72.9324 -72.9219 -39.1592 -39.1343 -39.0759 -39.0204 -38.8637 -38.8620
     6.5632   8.6703   9.8939  11.0563  11.2332  11.3478  12.3038  12.3517
    12.4595  12.9332  13.4998  13.8228  13.9728  15.8045  16.5215

          k = 0.3333-0.3044 0.0000 (  3240 PWs)   bands (ev):

   -72.9272 -72.9272 -39.1593 -39.1593 -39.0359 -39.0359 -38.8623 -38.8623
     7.0996   7.0996  11.1468  11.1468  11.4656  11.4656  12.0152  12.0152
    12.9056  12.9056  13.5782  13.5782  15.8157  15.8157  16.7519

          k = 0.3333-0.3044 0.1443 (  3270 PWs)   bands (ev):

   -72.9272 -72.9272 -39.1595 -39.1595 -39.0362 -39.0362 -38.8626 -38.8626
     7.3926   7.3926  10.5539  10.5539  11.6971  11.6971  12.1045  12.1045
    12.9139  12.9139  13.4805  13.4805  14.5286  14.5286  17.2702

          k = 0.3333-0.3044-0.2887 (  3264 PWs)   bands (ev):

   -72.9272 -72.9272 -39.1592 -39.1592 -39.0363 -39.0363 -38.8627 -38.8627
     7.7902   7.7902  10.0568  10.0568  11.6434  11.6434  12.3147  12.3147
    12.4543  12.4543  13.6206  13.6206  14.2313  14.2313  17.3350

          k =-0.5000 0.0000 0.0000 (  3236 PWs)   bands (ev):

   -72.9224 -72.9224 -39.1718 -39.1718 -39.0623 -39.0623 -38.8582 -38.8582
     8.0378   8.0378  10.3513  10.3513  11.2230  11.2230  12.8695  12.8695
    12.9162  12.9162  14.7962  14.7962  16.4132  16.4132  17.2443

          k =-0.5000 0.0000 0.1443 (  3244 PWs)   bands (ev):

   -72.9224 -72.9224 -39.1717 -39.1717 -39.0625 -39.0625 -38.8583 -38.8583
     8.2647   8.2647  10.3846  10.3846  11.1526  11.1526  12.8017  12.8017
    13.0116  13.0116  13.9661  13.9661  15.7201  15.7201  17.3350

          k =-0.5000 0.0000-0.2887 (  3196 PWs)   bands (ev):

   -72.9224 -72.9224 -39.1715 -39.1715 -39.0621 -39.0621 -38.8576 -38.8576
     8.5210   8.5210  10.5560  10.5560  11.0885  11.0885  12.2052  12.2052
    13.1007  13.1007  13.5282  13.5282  15.7231  15.7231  17.4390

          k =-0.5000 0.1522 0.0000 (  3244 PWs)   bands (ev):

   -72.9224 -72.9224 -39.1867 -39.1867 -39.0465 -39.0465 -38.8593 -38.8593
     8.3534   8.3534  10.6138  10.6138  11.1932  11.1932  12.2450  12.2450
    12.6793  12.6793  14.6274  14.6274  15.3573  15.3573  17.3032

          k =-0.5000 0.1522 0.1443 (  3254 PWs)   bands (ev):

   -72.9224 -72.9224 -39.1868 -39.1868 -39.0466 -39.0466 -38.8593 -38.8593
     8.6168   8.6168  10.3044  10.3044  11.5204  11.5204  12.1683  12.1683
    13.0127  13.0127  13.7636  13.7636  15.0324  15.0324  17.0360

          k =-0.5000 0.1522-0.2887 (  3236 PWs)   bands (ev):

   -72.9224 -72.9224 -39.1867 -39.1867 -39.0466 -39.0466 -38.8590 -38.8590
     8.9117   8.9117  10.2672  10.2672  11.7091  11.7091  11.8902  11.8902
    12.8286  12.8286  13.4300  13.4300  15.3498  15.3498  16.3711

          k =-0.5000-0.3044 0.0000 (  3248 PWs)   bands (ev):

   -72.9224 -72.9224 -39.1992 -39.1992 -39.0331 -39.0331 -38.8603 -38.8603
     8.8244   8.8244  10.7327  10.7327  11.0472  11.0472  11.7442  11.7442
    12.7258  12.7258  13.8047  13.8047  15.1280  15.1280  18.0941

          k =-0.5000-0.3044 0.1443 (  3244 PWs)   bands (ev):

   -72.9224 -72.9224 -39.1990 -39.1990 -39.0332 -39.0332 -38.8603 -38.8603
     9.2318   9.2318   9.9950   9.9950  11.6005  11.6005  12.0498  12.0498
    12.9112  12.9112  13.2908  13.2908  14.6307  14.6307  17.5595

          k =-0.5000-0.3044-0.2887 (  3264 PWs)   bands (ev):

   -72.9224 -72.9224 -39.1991 -39.1991 -39.0334 -39.0334 -38.8605 -38.8605
     9.6887   9.6887   9.9626   9.9626  11.0534  11.0534  12.3567  12.3567
    12.7126  12.7126  13.6902  13.6902  14.4510  14.4510  16.0220

     the Fermi energy is    13.6837 ev

!    total energy              =    -737.54989550 Ry
     total all-electron energy =     -6062.428530 Ry
     estimated scf accuracy    <          8.7E-12 Ry
     smearing contrib. (-TS)   =       0.00005931 Ry
     internal energy E=F+TS    =    -737.54995481 Ry

     The total energy is F=E-TS. E is the sum of the following terms:
     one-electron contribution =    -356.64635956 Ry
     hartree contribution      =     198.74141872 Ry
     xc contribution           =     -75.75622388 Ry
     ewald contribution        =    -283.07249828 Ry
     one-center paw contrib.   =    -220.81629181 Ry

     convergence has been achieved in   8 iterations

     Forces acting on atoms (cartesian axes, Ry/au):

     atom    1 type  1   force =     0.00000000    0.00000000   -0.00081036
     atom    2 type  1   force =     0.00000000    0.00000000    0.00081036
     atom    3 type  2   force =     0.00000000    0.00000000    0.00052151
     atom    4 type  2   force =     0.00000000    0.00000000   -0.00052151

     Total force =     0.001363     Total SCF correction =     0.000004


     Computing stress (Cartesian axis) and pressure

          total   stress  (Ry/bohr**3)                   (kbar)     P=      -16.16
   0.00052232   0.00000000   0.00000000           76.84        0.00        0.00
   0.00000000  -0.00021651   0.00000000            0.00      -31.85        0.00
   0.00000000   0.00000000  -0.00063534            0.00        0.00      -93.46

     Energy error            =      4.4E-06 Ry
     Gradient error          =      8.1E-04 Ry/Bohr

     bfgs converged in   8 scf cycles and   7 bfgs steps
     (criteria: energy <  1.0E-04 Ry, force <  1.0E-03 Ry/Bohr)

     End of BFGS Geometry Optimization

     Final energy             =    -737.5498954997 Ry

     File ./FeAl.bfgs deleted, as requested
Begin final coordinates

ATOMIC_POSITIONS (angstrom)
Fe               1.9359767605        3.1804352811        4.0349424532
Fe               0.6453255868        1.0601450937        0.4360017957
Al               0.6453255868        3.1804352811        1.7623718889
Al               1.9359767605        1.0601450937        2.7085723600
End final coordinates



     Writing all to output data dir ./FeAl.save/ :
     XML data file, charge density, pseudopotentials, collected wavefunctions

     init_run     :      5.64s CPU      6.38s WALL (       1 calls)
     electrons    :    516.73s CPU    542.81s WALL (       8 calls)
     update_pot   :      2.43s CPU      2.08s WALL (       7 calls)
     forces       :      9.64s CPU     11.22s WALL (       8 calls)
     stress       :     37.96s CPU     42.74s WALL (       8 calls)

     Called by init_run:
     wfcinit      :      3.33s CPU      3.50s WALL (       1 calls)
     potinit      :      0.79s CPU      0.87s WALL (       1 calls)
     hinit0       :      1.02s CPU      1.08s WALL (       1 calls)

     Called by electrons:
     c_bands      :    424.78s CPU    425.80s WALL (      70 calls)
     sum_band     :     50.27s CPU     68.31s WALL (      70 calls)
     v_of_rho     :      4.69s CPU      4.56s WALL (      76 calls)
     newd         :     20.06s CPU     29.50s WALL (      76 calls)
     PAW_pot      :     23.28s CPU     22.60s WALL (      83 calls)
     mix_rho      :      0.36s CPU     -0.18s WALL (      70 calls)

     Called by c_bands:
     init_us_2    :      4.54s CPU      4.73s WALL (    5904 calls)
     cegterg      :    415.39s CPU    416.44s WALL (    2520 calls)

     Called by *egterg:
     cdiaghg      :      7.61s CPU      7.91s WALL (   14310 calls)
     h_psi        :    199.93s CPU    198.93s WALL (   14670 calls)
     s_psi        :     43.01s CPU     43.23s WALL (   14670 calls)
     g_psi        :      1.30s CPU      1.35s WALL (   12114 calls)

     Called by h_psi:
     h_psi:calbec :     43.32s CPU     43.47s WALL (   14670 calls)
     vloc_psi     :    112.14s CPU    111.12s WALL (   14670 calls)
                                        0.00s GPU  (   14670 calls)
     add_vuspsi   :     43.44s CPU     43.28s WALL (   14670 calls)

     General routines
     calbec       :     77.64s CPU     78.63s WALL (   22338 calls)
     fft          :      2.25s CPU      2.37s WALL (    1181 calls)
     ffts         :      0.23s CPU      0.23s WALL (     146 calls)
     fftw         :    107.62s CPU    107.53s WALL (  466110 calls)
     interpolate  :      0.34s CPU      0.35s WALL (      76 calls)

     Parallel routines

     PWSCF        :   9m37.65s CPU  10m11.89s WALL


   This run was terminated on:   9:14:38  23Jul2026            

=------------------------------------------------------------------------------=
   JOB DONE.
=------------------------------------------------------------------------------=
