&CONTROL
   calculation      = 'relax'
   verbosity        = 'low'
   tstress          = .true.
   tprnfor          = .true.
   outdir           = '.'
   prefix           = 'FeAl'
   pseudo_dir       = '/home/yluo/ASE/05_volume_optimization/CMP_pseudos'
/
&SYSTEM
   ecutwfc          = 70.0
   ecutrho          = 700.0
   occupations      = 'smearing'
   degauss          = 0.005
   smearing         = 'mv'
   ntyp             = 2
   nat              = 4
   ibrav            = 0
/
&ELECTRONS
   conv_thr         = 1e-09
   mixing_beta      = 0.7
/
&IONS
   ion_dynamics     = 'bfgs'
/
&CELL
/
&FCP
/
&RISM
/
ATOMIC_SPECIES
Fe 55.845 Fe.pbe-spn-kjpaw_psl.0.2.1.UPF
Al 26.9815385 Al.pbe-n-kjpaw_psl.0.1.UPF

K_POINTS automatic
6 4 4  0 0 0

CELL_PARAMETERS angstrom
2.58130234729175 0.00000000000000 0.00000000000000
0.00000000000000 4.24058037482524 0.00000000000000
0.00000000000000 0.00000000000000 4.47094424891583

ATOMIC_POSITIONS angstrom
Fe 1.9359767605 3.1804352811 4.0983655630  
Fe 0.6453255868 1.0601450937 0.3725786859  
Al 0.6453255868 3.1804352811 1.8628934385  
Al 1.9359767605 1.0601450937 2.6080508104  

