
     Program PWSCF v.7.5 starts on 28Jul2026 at 16:39:55 

     This program is part of the open-source Quantum ESPRESSO suite
     for quantum simulation of materials; please cite
         "P. Giannozzi et al., J. Phys.:Condens. Matter 21 395502 (2009);
         "P. Giannozzi et al., J. Phys.:Condens. Matter 29 465901 (2017);
         "P. Giannozzi et al., J. Chem. Phys. 152 154105 (2020);
          URL http://www.quantum-espresso.org", 
     in publications or presentations arising from this work. More details at
     http://www.quantum-espresso.org/quote

     Parallel version (MPI), running on     1 processors

     MPI processes distributed on     1 nodes
     13487 MiB available memory on the printing compute node when the environment starts

     Reading input from espresso.pwi
Warning: card &CELL ignored
Warning: card &FCP ignored
Warning: card &RISM ignored

     Current dimensions of program PWSCF are:
     Max number of different atomic species (ntypx) = 10
     Max number of k-points (npk) =  40000
     Max angular momentum in pseudopotentials (lmaxx) =  4
     file Al.pbe-n-kjpaw_psl.1.0.0.UPF: wavefunction(s)  3S 3P renormalized
     Message from routine setup:
     using ibrav=0 with symmetry is DISCOURAGED, use correct ibrav instead

     Subspace diagonalization in iterative solution of the eigenvalue problem:
     a serial algorithm will be used


     G-vector sticks info
     --------------------
     sticks:   dense  smooth     PW     G-vecs:    dense   smooth      PW
     Sum       10229   10229   2561               778439   778439   97521

     Using Slab Decomposition



     bravais-lattice index     =            0
     lattice parameter (alat)  =      28.3459  a.u.
     unit-cell volume          =   22775.6289 (a.u.)^3
     number of atoms/cell      =            1
     number of atomic types    =            1
     number of electrons       =         3.00
     number of Kohn-Sham states=            6
     kinetic-energy cutoff     =      40.0000  Ry
     charge density cutoff     =     160.0000  Ry
     scf convergence threshold =      1.0E-08
     mixing beta               =       0.7000
     number of iterations used =            8  plain     mixing
     Exchange-correlation= SLA  PW   PBX  PBC
                           (   1   4   3   4   0   0   0)

     celldm(1)=  28.345892  celldm(2)=   0.000000  celldm(3)=   0.000000
     celldm(4)=   0.000000  celldm(5)=   0.000000  celldm(6)=   0.000000

     crystal axes: (cart. coord. in units of alat)
               a(1) = (   1.000000   0.000000   0.000000 )  
               a(2) = (   0.000000   1.000000   0.000000 )  
               a(3) = (   0.000000   0.000000   1.000000 )  

     reciprocal axes: (cart. coord. in units 2 pi/alat)
               b(1) = (  1.000000  0.000000  0.000000 )  
               b(2) = (  0.000000  1.000000  0.000000 )  
               b(3) = (  0.000000  0.000000  1.000000 )  


     PseudoPot. # 1 for Al read from file:
     /home/yluo/ASE/pseudopotential-library/Al.pbe-n-kjpaw_psl.1.0.0.UPF
     MD5 check sum: cfc449ca30b5f3223ec38ddd88ac046d
     Pseudo is Projector augmented-wave + core cor, Zval =  3.0
     Generated using "atomic" code by A. Dal Corso  v.5.1
     Shape of augmentation charge: PSQ
     Using radial grid of 1135 points,  6 beta functions with: 
                l(1) =   0
                l(2) =   0
                l(3) =   1
                l(4) =   1
                l(5) =   2
                l(6) =   2
     Q(r) pseudized with 0 coefficients 


     atomic species   valence    mass     pseudopotential
     Al                3.00    26.98154     Al( 1.00)

     Starting magnetic structure 
     atomic species   magnetization
     Al              0.000

     48 Sym. Ops., with inversion, found



   Cartesian axes

     site n.     atom                  positions (alat units)
         1        Al     tau(   1) = (   0.5000000   0.5000000   0.5000000  )

     number of k points=     1  Marzari-Vanderbilt smearing, width (Ry)=  0.0050
                       cart. coord. in units 2pi/alat
        k(    1) = (   0.0000000   0.0000000   0.0000000), wk =   1.0000000

     Dense  grid:   778439 G-vectors     FFT dimensions: ( 120, 120, 120)

     Estimated max dynamical RAM per process >       3.13 GB
     Generating pointlists ...
     new r_m :   0.4125 (alat units) 11.6927 (a.u.) for type    1

     Initial potential from superposition of free atoms

     starting charge       2.9977, renormalised to       3.0000

     negative rho (up, down):  6.695E-05 6.695E-05
     Starting wfcs are    4 randomized atomic wfcs +    2 random wfcs
     Checking if some PAW data can be deallocated... 

     total cpu time spent up to now is       11.3 secs

     Self-consistent Calculation

     iteration #  1     ecut=    40.00 Ry     beta= 0.70
     Davidson diagonalization with overlap
     ethr =  1.00E-02,  avg # of iterations =  5.5

     Threshold (ethr) on eigenvalues was too large:
     Diagonalizing with lowered threshold

     Davidson diagonalization with overlap
     c_bands:  1 eigenvalues not converged
     c_bands:  1 eigenvalues not converged
     ethr =  3.45E-07,  avg # of iterations = 20.0

     negative rho (up, down):  9.901E-06 1.059E-05

     total cpu time spent up to now is       47.8 secs

     total energy              =     -39.23149326 Ry
     estimated scf accuracy    <       0.00001112 Ry

     total magnetization       =     0.11 Bohr mag/cell
     absolute magnetization    =     0.11 Bohr mag/cell

     iteration #  2     ecut=    40.00 Ry     beta= 0.70
     Davidson diagonalization with overlap
     c_bands:  1 eigenvalues not converged
     c_bands:  1 eigenvalues not converged
     ethr =  3.71E-07,  avg # of iterations = 20.0

     negative rho (up, down):  1.016E-05 9.860E-06

     total cpu time spent up to now is       67.5 secs

     total energy              =     -39.23027723 Ry
     estimated scf accuracy    <       0.00045282 Ry

     total magnetization       =     0.84 Bohr mag/cell
     absolute magnetization    =     0.84 Bohr mag/cell

     iteration #  3     ecut=    40.00 Ry     beta= 0.70
     Davidson diagonalization with overlap
     ethr =  3.71E-07,  avg # of iterations =  3.5

     negative rho (up, down):  1.448E-05 1.424E-05

     total cpu time spent up to now is       83.9 secs

     total energy              =     -39.23127126 Ry
     estimated scf accuracy    <       0.00001704 Ry

     total magnetization       =    -0.16 Bohr mag/cell
     absolute magnetization    =     0.16 Bohr mag/cell

     iteration #  4     ecut=    40.00 Ry     beta= 0.70
     Davidson diagonalization with overlap
     ethr =  3.71E-07,  avg # of iterations =  2.0

     negative rho (up, down):  1.367E-05 1.349E-05

     total cpu time spent up to now is       98.9 secs

     total energy              =     -39.23131331 Ry
     estimated scf accuracy    <       0.00001321 Ry

     total magnetization       =     0.14 Bohr mag/cell
     absolute magnetization    =     0.14 Bohr mag/cell

     iteration #  5     ecut=    40.00 Ry     beta= 0.70
     Davidson diagonalization with overlap
     ethr =  3.71E-07,  avg # of iterations =  1.0

     negative rho (up, down):  1.362E-05 1.345E-05

     total cpu time spent up to now is      114.0 secs

     total energy              =     -39.23134696 Ry
     estimated scf accuracy    <       0.00000125 Ry

     total magnetization       =    -0.04 Bohr mag/cell
     absolute magnetization    =     0.04 Bohr mag/cell

     iteration #  6     ecut=    40.00 Ry     beta= 0.70
     Davidson diagonalization with overlap
     ethr =  4.18E-08,  avg # of iterations =  1.0

     negative rho (up, down):  1.387E-05 1.354E-05

     total cpu time spent up to now is      129.0 secs

     total energy              =     -39.23134816 Ry
     estimated scf accuracy    <       0.00000061 Ry

     total magnetization       =    -0.03 Bohr mag/cell
     absolute magnetization    =     0.03 Bohr mag/cell

     iteration #  7     ecut=    40.00 Ry     beta= 0.70
     Davidson diagonalization with overlap
     ethr =  2.03E-08,  avg # of iterations =  1.0

     negative rho (up, down):  1.341E-05 1.336E-05

     total cpu time spent up to now is      144.2 secs

     total energy              =     -39.23134439 Ry
     estimated scf accuracy    <       0.00000150 Ry

     total magnetization       =    -0.05 Bohr mag/cell
     absolute magnetization    =     0.05 Bohr mag/cell

     iteration #  8     ecut=    40.00 Ry     beta= 0.70
     Davidson diagonalization with overlap
     ethr =  2.03E-08,  avg # of iterations =  1.0

     negative rho (up, down):  1.345E-05 1.337E-05

     Magnetic moment per site  (integrated on atomic sphere of radius R)
     atom   1 (R=0.413)  charge=  2.9998  magn= -0.0028

     total cpu time spent up to now is      159.0 secs

     End of self-consistent calculation

 ------ SPIN UP ------------


          k = 0.0000 0.0000 0.0000 ( 97521 PWs)   bands (ev):

    -7.6790  -2.6383  -2.6383  -2.6383  -0.4067   0.3479

 ------ SPIN DOWN ----------


          k = 0.0000 0.0000 0.0000 ( 97521 PWs)   bands (ev):

    -7.6791  -2.6385  -2.6385  -2.6385  -0.4069   0.3456

     the Fermi energy is    -2.6671 ev

!    total energy              =     -39.23134634 Ry
     total all-electron energy =      -485.374128 Ry
     estimated scf accuracy    <          5.4E-09 Ry
     smearing contrib. (-TS)   =      -0.00377678 Ry
     internal energy E=F+TS    =     -39.22756955 Ry

     The total energy is F=E-TS. E is the sum of the following terms:
     one-electron contribution =      -3.46835591 Ry
     hartree contribution      =       2.00043877 Ry
     xc contribution           =      -2.18230567 Ry
     ewald contribution        =      -0.90085996 Ry
     one-center paw contrib.   =     -34.67648679 Ry

     total magnetization       =    -0.00 Bohr mag/cell
     absolute magnetization    =     0.00 Bohr mag/cell

     convergence has been achieved in   8 iterations

     negative rho (up, down):  1.345E-05 1.337E-05

     Forces acting on atoms (cartesian axes, Ry/au):

     atom    1 type  1   force =     0.00000000    0.00000000    0.00000000

     Total force =     0.000000     Total SCF correction =     0.000000


     Computing stress (Cartesian axis) and pressure


     negative rho (up, down):  1.345E-05 1.337E-05
          total   stress  (Ry/bohr**3)                   (kbar)     P=       -0.00
  -0.00000000   0.00000000   0.00000000           -0.00        0.00        0.00
   0.00000000  -0.00000000   0.00000000            0.00       -0.00        0.00
   0.00000000   0.00000000  -0.00000000            0.00        0.00       -0.00


     Writing all to output data dir ./AlFree.save/ :
     XML data file, charge density, pseudopotentials, collected wavefunctions

     init_run     :      7.96s CPU     11.16s WALL (       1 calls)
     electrons    :    119.41s CPU    147.83s WALL (       1 calls)
     forces       :      5.34s CPU      7.06s WALL (       1 calls)
     stress       :     25.22s CPU     31.58s WALL (       1 calls)

     Called by init_run:
     wfcinit      :      1.55s CPU      1.73s WALL (       1 calls)
     potinit      :      1.54s CPU      2.20s WALL (       1 calls)
     hinit0       :      1.16s CPU      1.24s WALL (       1 calls)

     Called by electrons:
     c_bands      :     30.13s CPU     30.38s WALL (       9 calls)
     sum_band     :     54.58s CPU     71.09s WALL (       9 calls)
     v_of_rho     :      9.90s CPU     10.48s WALL (       9 calls)
     newd         :     23.50s CPU     36.79s WALL (       9 calls)
     PAW_pot      :      3.55s CPU      3.61s WALL (       9 calls)
     mix_rho      :      1.87s CPU      2.23s WALL (       9 calls)

     Called by c_bands:
     init_us_2    :      1.13s CPU      1.32s WALL (      42 calls)
     cegterg      :     28.68s CPU     28.88s WALL (      18 calls)

     Called by *egterg:
     cdiaghg      :      0.01s CPU      0.05s WALL (     126 calls)
     h_psi        :     22.14s CPU     22.31s WALL (     130 calls)
     s_psi        :      1.89s CPU      1.89s WALL (     130 calls)
     g_psi        :      0.13s CPU      0.13s WALL (     110 calls)

     Called by h_psi:
     h_psi:calbec :      1.80s CPU      1.83s WALL (     130 calls)
     vloc_psi     :     18.29s CPU     18.42s WALL (     130 calls)
                                        0.00s GPU  (     130 calls)
     add_vuspsi   :      1.91s CPU      1.92s WALL (     130 calls)

     General routines
     calbec       :      3.09s CPU      3.13s WALL (     182 calls)
     fft          :      4.94s CPU      4.96s WALL (     233 calls)
     ffts         :      0.34s CPU      0.34s WALL (      18 calls)
     fftw         :     16.99s CPU     17.03s WALL (     964 calls)

     Parallel routines

     PWSCF        :   2m38.12s CPU   3m17.95s WALL


   This run was terminated on:  16:43:13  28Jul2026            

=------------------------------------------------------------------------------=
   JOB DONE.
=------------------------------------------------------------------------------=
